&CONTROL
  calculation = 'scf'
  etot_conv_thr =   2.1600000000d-03
  forc_conv_thr =   1.0000000000d-04
  outdir = './out/'
  prefix = 'aiida'
  pseudo_dir = './pseudo/'
  tprnfor = .true.
  !tstress = .true.
  verbosity = 'high'
  disk_io   = 'high'
  max_seconds = 14400
/
&SYSTEM
  degauss =   1.4699723600d-02
  ecutwfc =   10.0000000000d+01
  ibrav = 0
  nat = 215
  nosym = .false.
  ntyp = 2
  occupations = 'smearing'
  smearing = 'mv'
  tot_charge = 2
  nspin = 2
  starting_magnetization(1) =  0.5
  starting_magnetization(2) = -0.5
  input_dft = 'pbe0'
  exx_fraction = 0.23
  ecutfock = 120
  ace = .true.
  localization_thr = 0.001
/
&ELECTRONS
  conv_thr =   4.3200000000d-08
  electron_maxstep = 80
  mixing_beta =   4.0000000000d-01
  adaptive_thr = .True.
  conv_thr_init = 1.D-3 
  conv_thr_multi = 1.D-2
/
&IONS
/
ATOMIC_SPECIES
B      10.811 B_ONCV_PBE-1.2.upf
N      14.0067 N_ONCV_PBE-1.2.upf
ATOMIC_POSITIONS (angstrom)
B             0.0068543477        0.0068543477       -0.0058234946
N            -0.0440768952       -0.0440768952        3.6700800625
B            -0.0059803825       -0.0059803825        7.2621638886
B            -0.0096798893        3.6465619480       -0.0205587807
B             0.0068544052        3.6318266517        3.6191488094
B             0.0035197317        3.6221548135        7.2497008138
B             0.0035197892        7.2543048618        0.0038483436
B            -0.0059804400        7.2418417870        3.6319835396
B            -0.0064929977        7.2469331475        7.2570725383
B             3.6465619480       -0.0096798893       -0.0205587807
B             3.6318266517        0.0068544052        3.6191488094
B             3.6221548135        0.0035197317        7.2497008138
B             3.6281876548        3.6281876548       -0.0021844402
B             3.6465619790        3.6465619790        3.6356830876
B             3.6319686441        3.6319686441        7.2563745354
B             3.6319685930        7.2476310993       -0.0059654934
B             3.6221548646        7.2543048209        3.6224834190
B             3.6249553596        7.2534722701        7.2505333333
B             7.2543048618        0.0035197892        0.0038483436
B             7.2418417870       -0.0059804400        3.6319835396
B             7.2469331475       -0.0064929977        7.2570725383
B             7.2476310993        3.6319685930       -0.0059654934
B             7.2543048209        3.6221548646        3.6224834190
B             7.2534722701        3.6249553596        7.2505333333
B             7.2534723113        7.2534723113        0.0010478962
B             7.2469331063        7.2469331063        3.6324962535
B             7.2468449256        7.2468449256        7.2571606580
B            -0.0827529590        1.9280842306        1.6979153984
B             0.0230441452        1.8016138480        5.4429236065
B            -0.0004668964        1.8137135790        9.0608127861
B            -0.0004668282        5.4431963994        1.8122860418
B            -0.0011855379        5.4362587150        5.4394248199
B            -0.0014528279        5.4421300736        9.0618791201
B             0.0230440770        9.0610855790        1.8243857728
B            -0.0381128354        9.0378729114        5.4661362823
B            -0.0011854697        9.0645843656        9.0677504705
B             3.6399969117        1.8143079826        1.8116916128
B             3.6414627806        1.8283386810        5.4534301642
B             3.6285665105        1.8148134483        9.0622220588
B             3.6285664603        5.4417872258        1.8111861057
B             3.6290125140        5.4454383117        5.4424922928
B             3.6283952303        5.4404317893        9.0635773721
B             3.6414628308        9.0505791204        1.7976608730
B             3.6200591346        9.0695098162        5.4344993452
B             3.6290125765        9.0615169095        9.0585708906
B             7.2448730908        1.8168584621        1.8091410697
B             7.2523128854        1.8068802553        5.4386787589
B             7.2509766820        1.8151813133        9.0621136282
B             7.2509767440        5.4418955236        1.8108182725
B             7.2511415207        5.4344304839        5.4410327262
B             7.2508607311        5.4399207100        9.0640885524
B             7.2523128234        9.0653303929        1.8191193305
B             7.2368054111        9.0532689437        5.4507403187
B             7.2511414700        9.0629765079        9.0695787502
B             1.9280842306       -0.0827529590        1.6979153984
B             1.8016138480        0.0230441452        5.4429236065
B             1.8137135790       -0.0004668964        9.0608127861
B             1.8143079826        3.6399969117        1.8116916128
B             1.8283386810        3.6414627806        5.4534301642
B             1.8148134483        3.6285665105        9.0622220588
B             1.8168584621        7.2448730908        1.8091410697
B             1.8068802553        7.2523128854        5.4386787589
B             1.8151813133        7.2509766820        9.0621136282
B             5.4431963994       -0.0004668282        1.8122860418
B             5.4362587150       -0.0011855379        5.4394248199
B             5.4421300736       -0.0014528279        9.0618791201
B             5.4417872258        3.6285664603        1.8111861057
B             5.4454383117        3.6290125140        5.4424922928
B             5.4404317893        3.6283952303        9.0635773721
B             5.4418955236        7.2509767440        1.8108182725
B             5.4344304839        7.2511415207        5.4410327262
B             5.4399207100        7.2508607311        9.0640885524
B             9.0610855790        0.0230440770        1.8243857728
B             9.0378729114       -0.0381128354        5.4661362823
B             9.0645843656       -0.0011854697        9.0677504705
B             9.0505791204        3.6414628308        1.7976608730
B             9.0695098162        3.6200591346        5.4344993452
B             9.0615169095        3.6290125765        9.0585708906
B             9.0653303929        7.2523128234        1.8191193305
B             9.0532689437        7.2368054111        5.4507403187
B             9.0629765079        7.2511414700        9.0695787502
B             1.8143079994        1.8143079994       -0.0139936172
B             1.9280842138        1.9280842138        3.7087562535
B             1.8168584621        1.8168584621        7.2591324802
B             1.8148134887        5.4417871753       -0.0025632960
B             1.8137135526        5.4431964499        3.6264699925
B             1.8151813037        5.4418955236        7.2530289274
B             1.8283387074        9.0505790718       -0.0154596845
B             1.8016138076        9.0610856276        3.6029590693
B             1.8068802649        9.0653303929        7.2516927240
B             5.4417871753        1.8148134887       -0.0025632960
B             5.4431964499        1.8137135526        3.6264699925
B             5.4418955236        1.8151813037        7.2530289274
B             5.4404318398        5.4404318398       -0.0023920660
B             5.4421300736        5.4421300736        3.6274559917
B             5.4399206595        5.4399206595        7.2531449408
B             5.4454383117        9.0615169009       -0.0030093502
B             5.4362586645        9.0645843920        3.6271887022
B             5.4344305344        9.0629764857        7.2528641512
B             9.0505790718        1.8283387074       -0.0154596845
B             9.0610856276        1.8016138076        3.6029590693
B             9.0653303929        1.8068802649        7.2516927240
B             9.0615169009        5.4454383117       -0.0030093502
B             9.0645843920        5.4362586645        3.6271887022
B             9.0629764857        5.4344305344        7.2528641512
B             9.0695097898        9.0695097898        0.0059440979
B             9.0378729200        9.0378729200        3.6641160617
B             9.0532689659        9.0532689659        7.2672002101
N             0.9052449774        0.9052449774        6.3435973958
N             0.9078101092        0.9078101092        9.9719370553
N             0.9078100241        4.5320687250        2.7181929942
N             0.9073809613        4.5282579775        6.3417280662
N             0.9067956790        4.5352338309        9.9687717571
N             0.9052448670        8.1604118390        2.7207581998
N             0.8995437279        8.1605835587        6.3434255576
N             0.9073807708        8.1622813204        9.9757475597
N             4.5320687250        0.9078100241        2.7181929942
N             4.5282579775        0.9073809613        6.3417280662
N             4.5352338309        0.9067956790        9.9687717571
N             4.5352339858        4.5352339858        2.7192077889
N             4.5334959162        4.5334959162        6.3446870909
N             4.5328280053        4.5328280053        9.9711773414
N             4.5282579985        8.1622811256        2.7186225002
N             4.5247835975        8.1623066285        6.3417021607
N             4.5334961178        8.1593222270        9.9705097476
N             8.1604118390        0.9052448670        2.7207581998
N             8.1605835587        0.8995437279        6.3434255576
N             8.1622813204        0.9073807708        9.9757475597
N             8.1622811256        4.5282579985        2.7186225002
N             8.1623066285        4.5247835975        6.3417021607
N             8.1593222270        4.5334961178        9.9705097476
N             8.1605834740        8.1605834740        2.7264593751
N             8.1520291284        8.1520291284        6.3519800424
N             8.1623069192        8.1623069192        9.9792222558
N             0.9118819934        2.7200315605        0.9059715157
N             0.9083298942        2.6980433028        4.5097826638
N             0.9070291692        2.7178465732        8.1569237450
N             0.9070292796        6.3470854898        0.9081566040
N             0.9043926284        6.3448123645        4.5323179891
N             0.9056611345        6.3463266732        8.1576824431
N             0.9083299793        9.9942231165        0.9279598006
N             0.8419098395        9.9724002786        4.5316053094
N             0.9043924379        9.9716875481        8.1591970221
N             4.5324506937        2.7187468719        0.9072561464
N             4.5338951792        2.7205746820        4.5326602830
N             4.5336116790        2.7196170020        8.1576235496
N             4.5336116580        6.3463856422        0.9063864595
N             4.5279841112        6.3492975624        4.5317365149
N             4.5314880776        6.3466092849        8.1573995043
N             4.5338950243        9.9713454599        0.9054287859
N             4.5236994759        9.9765280320        4.5274773147
N             4.5279843128        9.9722691489        8.1547117555
N             8.1592839715        2.7204053809        0.9055976859
N             8.1760021540        2.7010759510        4.5264595953
N             8.1616530881        2.7162586135        8.1545921315
N             8.1616531728        6.3494169001        0.9097444895
N             8.1565579027        6.3389995266        4.5344527019
N             8.1584217302        6.3431241398        8.1608850310
N             8.1760023488        9.9775459629        0.9249273200
N             8.1460680164        9.9598893175        4.5441165479
N             8.1565581934        9.9695531514        8.1650095533
N             2.7200315605        0.9118819934        0.9059715157
N             2.6980433028        0.9083298942        4.5097826638
N             2.7178465732        0.9070291692        8.1569237450
N             2.7187468719        4.5324506937        0.9072561464
N             2.7205746820        4.5338951792        4.5326602830
N             2.7196170020        4.5336116790        8.1576235496
N             2.7204053809        8.1592839715        0.9055976859
N             2.7010759510        8.1760021540        4.5264595953
N             2.7162586135        8.1616530881        8.1545921315
N             6.3470854898        0.9070292796        0.9081566040
N             6.3448123645        0.9043926284        4.5323179891
N             6.3463266732        0.9056611345        8.1576824431
N             6.3463856422        4.5336116580        0.9063864595
N             6.3492975624        4.5279841112        4.5317365149
N             6.3466092849        4.5314880776        8.1573995043
N             6.3494169001        8.1616531728        0.9097444895
N             6.3389995266        8.1565579027        4.5344527019
N             6.3431241398        8.1584217302        8.1608850310
N             9.9942231165        0.9083299793        0.9279598006
N             9.9724002786        0.8419098395        4.5316053094
N             9.9716875481        0.9043924379        8.1591970221
N             9.9713454599        4.5338950243        0.9054287859
N             9.9765280320        4.5236994759        4.5274773147
N             9.9722691489        4.5279843128        8.1547117555
N             9.9775459629        8.1760023488        0.9249273200
N             9.9598893175        8.1460680164        4.5441165479
N             9.9695531514        8.1565581934        8.1650095533
N             2.7200317149        2.7200317149        2.7141212372
N             2.7204054815        2.7204054815        6.3447252999
N             2.7187468964        2.7187468964        9.9715551477
N             2.7178466738        6.3470855264        2.7189739982
N             2.7162588440        6.3494168882        6.3423559316
N             2.7196168769        6.3463854416        9.9703940068
N             2.6980433273        9.9942231776        2.7176731486
N             2.7010758259        9.9775460905        6.3280068372
N             2.7205742971        9.9713454667        9.9701105705
N             6.3470855264        2.7178466738        2.7189739982
N             6.3494168882        2.7162588440        6.3423559316
N             6.3463854416        2.7196168769        9.9703940068
N             6.3463266613        6.3463266613        2.7203421990
N             6.3431241618        6.3431241618        6.3455874626
N             6.3466094974        6.3466094974        9.9725174816
N             6.3448121639        9.9716876757        2.7216107080
N             6.3389997391        9.9695528573        6.3474510990
N             6.3492975038        9.9722690145        9.9760214182
N             9.9942231776        2.6980433273        2.7176731486
N             9.9775460905        2.7010758259        6.3280068372
N             9.9713454667        2.7205742971        9.9701105705
N             9.9716876757        6.3448121639        2.7216107080
N             9.9695528573        6.3389997391        6.3474510990
N             9.9722690145        6.3492975038        9.9760214182
N             9.9724002854        9.9724002854        2.7840932435
N             9.9598891831        9.9598891831        6.3579412429
N             9.9765282650        9.9765282650        9.9803061038
K_POINTS gamma
CELL_PARAMETERS angstrom
     10.8780060000       0.0000000000       0.0000000000
      0.0000000000      10.8780060000       0.0000000000
      0.0000000000       0.0000000000      10.8780060000
