&CONTROL
  calculation = 'scf'
  etot_conv_thr =   2.1600000000d-03
  forc_conv_thr =   1.0000000000d-04
  outdir = './out/'
  prefix = 'aiida'
  pseudo_dir = './pseudo/'
  tprnfor = .true.
  !tstress = .true.
  verbosity = 'high'
  disk_io   = 'high'
  max_seconds = 14400
/
&SYSTEM
  degauss =   1.4699723600d-02
  ecutwfc =   10.0000000000d+01
  ibrav = 0
  nat = 216
  nosym = .false.
  ntyp = 2
  occupations = 'smearing'
  smearing = 'mv'
  tot_charge = 1
  nspin = 2
  starting_magnetization(1) =  0.5
  starting_magnetization(2) = -0.5
  input_dft = 'pbe0'
  exx_fraction = 0.23
  ecutfock = 120
  ace = .true.
  localization_thr = 0.001
/
&ELECTRONS
  conv_thr =   4.3200000000d-08
  electron_maxstep = 80
  mixing_beta =   4.0000000000d-01
  adaptive_thr = .True.
  conv_thr_init = 1.D-3 
  conv_thr_multi = 1.D-2
/
&IONS
/
ATOMIC_SPECIES
B      10.811 B_ONCV_PBE-1.2.upf
N      14.0067 N_ONCV_PBE-1.2.upf
ATOMIC_POSITIONS (angstrom)
N             0.0000000000        0.0000000000        0.0000000000
B             0.0000000000       -0.0000000000        3.6323928885
B             0.0000000000        0.0000000000        7.2456131115
B             0.0000000000        3.6323928885        0.0000000000
B             0.0024044397        3.6316685063        3.6316685063
B            -0.0024044397        3.6316685063        7.2463374937
B             0.0000000000        7.2456131115        0.0000000000
B            -0.0024044397        7.2463374937        3.6316685063
B             0.0024044397        7.2463374937        7.2463374937
B             3.6323928885       -0.0000000000       -0.0000000000
B             3.6316685063        0.0024044397        3.6316685063
B             3.6316685063       -0.0024044397        7.2463374937
B             3.6316685063        3.6316685063        0.0024044397
B             3.6284680159        3.6284680159        3.6284680159
B             3.6269707893        3.6269707893        7.2510352107
B             3.6316685063        7.2463374937       -0.0024044397
B             3.6269707893        7.2510352107        3.6269707893
B             3.6284680159        7.2495379841        7.2495379841
B             7.2456131115       -0.0000000000       -0.0000000000
B             7.2463374937       -0.0024044397        3.6316685063
B             7.2463374937        0.0024044397        7.2463374937
B             7.2463374937        3.6316685063       -0.0024044397
B             7.2510352107        3.6269707893        3.6269707893
B             7.2495379841        3.6284680159        7.2495379841
B             7.2463374937        7.2463374937        0.0024044397
B             7.2495379841        7.2495379841        3.6284680159
B             7.2510352107        7.2510352107        7.2510352107
B             0.0147056691        1.8336465982        1.8336465982
B            -0.0000000000        1.8146767347        5.4390030000
B            -0.0147056691        1.8336465982        9.0443594018
B             0.0000000000        5.4390030000        1.8146767347
B             0.0000000000        5.4390030000        5.4390030000
B             0.0000000000        5.4390030000        9.0633292653
B            -0.0147056691        9.0443594018        1.8336465982
B            -0.0000000000        9.0633292653        5.4390030000
B             0.0147056691        9.0443594018        9.0443594018
B             3.6324582627        1.8183332669        1.8183332669
B             3.6278857895        1.8145023342        5.4394068714
B             3.6320326709        1.8147274993        9.0632785007
B             3.6278857895        5.4394068714        1.8145023342
B             3.6269947115        5.4390030000        5.4390030000
B             3.6278857895        5.4385991286        9.0635036658
B             3.6320326709        9.0632785007        1.8147274993
B             3.6278857895        9.0635036658        5.4385991286
B             3.6324582627        9.0596727331        9.0596727331
B             7.2459733291        1.8147274993        1.8147274993
B             7.2501202105        1.8145023342        5.4385991286
B             7.2455477373        1.8183332669        9.0596727331
B             7.2501202105        5.4385991286        1.8145023342
B             7.2510112885        5.4390030000        5.4390030000
B             7.2501202105        5.4394068714        9.0635036658
B             7.2455477373        9.0596727331        1.8183332669
B             7.2501202105        9.0635036658        5.4394068714
B             7.2459733291        9.0632785007        9.0632785007
B             1.8336465982        0.0147056691        1.8336465982
B             1.8146767347        0.0000000000        5.4390030000
B             1.8336465982       -0.0147056691        9.0443594018
B             1.8183332669        3.6324582627        1.8183332669
B             1.8145023342        3.6278857895        5.4394068714
B             1.8147274993        3.6320326709        9.0632785007
B             1.8147274993        7.2459733291        1.8147274993
B             1.8145023342        7.2501202105        5.4385991286
B             1.8183332669        7.2455477373        9.0596727331
B             5.4390030000        0.0000000000        1.8146767347
B             5.4390030000        0.0000000000        5.4390030000
B             5.4390030000       -0.0000000000        9.0633292653
B             5.4394068714        3.6278857895        1.8145023342
B             5.4390030000        3.6269947115        5.4390030000
B             5.4385991286        3.6278857895        9.0635036658
B             5.4385991286        7.2501202105        1.8145023342
B             5.4390030000        7.2510112885        5.4390030000
B             5.4394068714        7.2501202105        9.0635036658
B             9.0443594018       -0.0147056691        1.8336465982
B             9.0633292653       -0.0000000000        5.4390030000
B             9.0443594018        0.0147056691        9.0443594018
B             9.0632785007        3.6320326709        1.8147274993
B             9.0635036658        3.6278857895        5.4385991286
B             9.0596727331        3.6324582627        9.0596727331
B             9.0596727331        7.2455477373        1.8183332669
B             9.0635036658        7.2501202105        5.4394068714
B             9.0632785007        7.2459733291        9.0632785007
B             1.8336465982        1.8336465982        0.0147056691
B             1.8183332669        1.8183332669        3.6324582627
B             1.8147274993        1.8147274993        7.2459733291
B             1.8146767347        5.4390030000        0.0000000000
B             1.8145023342        5.4394068714        3.6278857895
B             1.8145023342        5.4385991286        7.2501202105
B             1.8336465982        9.0443594018       -0.0147056691
B             1.8147274993        9.0632785007        3.6320326709
B             1.8183332669        9.0596727331        7.2455477373
B             5.4390030000        1.8146767347       -0.0000000000
B             5.4394068714        1.8145023342        3.6278857895
B             5.4385991286        1.8145023342        7.2501202105
B             5.4390030000        5.4390030000        0.0000000000
B             5.4390030000        5.4390030000        3.6269947115
B             5.4390030000        5.4390030000        7.2510112885
B             5.4390030000        9.0633292653        0.0000000000
B             5.4385991286        9.0635036658        3.6278857895
B             5.4394068714        9.0635036658        7.2501202105
B             9.0443594018        1.8336465982       -0.0147056691
B             9.0632785007        1.8147274993        3.6320326709
B             9.0596727331        1.8183332669        7.2455477373
B             9.0633292653        5.4390030000        0.0000000000
B             9.0635036658        5.4385991286        3.6278857895
B             9.0635036658        5.4394068714        7.2501202105
B             9.0443594018        9.0443594018        0.0147056691
B             9.0596727331        9.0596727331        3.6324582627
B             9.0632785007        9.0632785007        7.2459733291
N             0.9076724661        0.9076724661        2.7196501572
N             0.9064666041        0.9064666041        6.3455539864
N             0.9600395669        0.9600395669        9.9179664331
N             0.9073433395        4.5335883291        2.7201689041
N             0.9065874619        4.5332854941        6.3447205059
N             0.9064666041        4.5324520136        9.9715393959
N             0.9067721888        8.1546220165        2.7233839835
N             0.9073433395        8.1578370959        6.3444176709
N             0.9076724661        8.1583558428        9.9703335339
N             4.5335883291        0.9073433395        2.7201689041
N             4.5332854941        0.9065874619        6.3447205059
N             4.5324520136        0.9064666041        9.9715393959
N             4.5330553821        4.5330553821        2.7198121417
N             4.5325501737        4.5325501737        6.3454558263
N             4.5332854941        4.5332854941        9.9714185381
N             4.5326146772        8.1584103430        2.7195956570
N             4.5330553821        8.1581938583        6.3449506179
N             4.5335883291        8.1578370959        9.9706626605
N             8.1546220165        0.9067721888        2.7233839835
N             8.1578370959        0.9073433395        6.3444176709
N             8.1583558428        0.9076724661        9.9703335339
N             8.1584103430        4.5326146772        2.7195956570
N             8.1581938583        4.5330553821        6.3449506179
N             8.1578370959        4.5335883291        9.9706626605
N             8.1571121585        8.1571121585        2.7208938415
N             8.1584103430        8.1584103430        6.3453913228
N             8.1546220165        8.1546220165        9.9712338112
N             0.9076724661        2.7196501572        0.9076724661
N             0.9073433395        2.7201689041        4.5335883291
N             0.9067721888        2.7233839835        8.1546220165
N             0.9064666041        6.3455539864        0.9064666041
N             0.9065874619        6.3447205059        4.5332854941
N             0.9073433395        6.3444176709        8.1578370959
N             0.9600395669        9.9179664331        0.9600395669
N             0.9064666041        9.9715393959        4.5324520136
N             0.9076724661        9.9703335339        8.1583558428
N             4.5335883291        2.7201689041        0.9073433395
N             4.5330553821        2.7198121417        4.5330553821
N             4.5326146772        2.7195956570        8.1584103430
N             4.5332854941        6.3447205059        0.9065874619
N             4.5325501737        6.3454558263        4.5325501737
N             4.5330553821        6.3449506179        8.1581938583
N             4.5324520136        9.9715393959        0.9064666041
N             4.5332854941        9.9714185381        4.5332854941
N             4.5335883291        9.9706626605        8.1578370959
N             8.1546220165        2.7233839835        0.9067721888
N             8.1584103430        2.7195956570        4.5326146772
N             8.1571121585        2.7208938415        8.1571121585
N             8.1578370959        6.3444176709        0.9073433395
N             8.1581938583        6.3449506179        4.5330553821
N             8.1584103430        6.3453913228        8.1584103430
N             8.1583558428        9.9703335339        0.9076724661
N             8.1578370959        9.9706626605        4.5335883291
N             8.1546220165        9.9712338112        8.1546220165
N             2.7196501572        0.9076724661        0.9076724661
N             2.7201689041        0.9073433395        4.5335883291
N             2.7233839835        0.9067721888        8.1546220165
N             2.7201689041        4.5335883291        0.9073433395
N             2.7198121417        4.5330553821        4.5330553821
N             2.7195956570        4.5326146772        8.1584103430
N             2.7233839835        8.1546220165        0.9067721888
N             2.7195956570        8.1584103430        4.5326146772
N             2.7208938415        8.1571121585        8.1571121585
N             6.3455539864        0.9064666041        0.9064666041
N             6.3447205059        0.9065874619        4.5332854941
N             6.3444176709        0.9073433395        8.1578370959
N             6.3447205059        4.5332854941        0.9065874619
N             6.3454558263        4.5325501737        4.5325501737
N             6.3449506179        4.5330553821        8.1581938583
N             6.3444176709        8.1578370959        0.9073433395
N             6.3449506179        8.1581938583        4.5330553821
N             6.3453913228        8.1584103430        8.1584103430
N             9.9179664331        0.9600395669        0.9600395669
N             9.9715393959        0.9064666041        4.5324520136
N             9.9703335339        0.9076724661        8.1583558428
N             9.9715393959        4.5324520136        0.9064666041
N             9.9714185381        4.5332854941        4.5332854941
N             9.9706626605        4.5335883291        8.1578370959
N             9.9703335339        8.1583558428        0.9076724661
N             9.9706626605        8.1578370959        4.5335883291
N             9.9712338112        8.1546220165        8.1546220165
N             2.7208938415        2.7208938415        2.7208938415
N             2.7195956570        2.7195956570        6.3453913228
N             2.7233839835        2.7233839835        9.9712338112
N             2.7195956570        6.3453913228        2.7195956570
N             2.7198121417        6.3449506179        6.3449506179
N             2.7201689041        6.3444176709        9.9706626605
N             2.7233839835        9.9712338112        2.7233839835
N             2.7201689041        9.9706626605        6.3444176709
N             2.7196501572        9.9703335339        9.9703335339
N             6.3453913228        2.7195956570        2.7195956570
N             6.3449506179        2.7198121417        6.3449506179
N             6.3444176709        2.7201689041        9.9706626605
N             6.3449506179        6.3449506179        2.7198121417
N             6.3454558263        6.3454558263        6.3454558263
N             6.3447205059        6.3447205059        9.9714185381
N             6.3444176709        9.9706626605        2.7201689041
N             6.3447205059        9.9714185381        6.3447205059
N             6.3455539864        9.9715393959        9.9715393959
N             9.9712338112        2.7233839835        2.7233839835
N             9.9706626605        2.7201689041        6.3444176709
N             9.9703335339        2.7196501572        9.9703335339
N             9.9706626605        6.3444176709        2.7201689041
N             9.9714185381        6.3447205059        6.3447205059
N             9.9715393959        6.3455539864        9.9715393959
N             9.9703335339        9.9703335339        2.7196501572
N             9.9715393959        9.9715393959        6.3455539864
N             9.9179664331        9.9179664331        9.9179664331
K_POINTS gamma
CELL_PARAMETERS angstrom
     10.8780060000       0.0000000000       0.0000000000
      0.0000000000      10.8780060000       0.0000000000
      0.0000000000       0.0000000000      10.8780060000
