&CONTROL
  calculation = 'scf'
  etot_conv_thr =   2.1600000000d-03
  forc_conv_thr =   1.0000000000d-04
  outdir = './out/'
  prefix = 'aiida'
  pseudo_dir = './pseudo/'
  tprnfor = .true.
  !tstress = .true.
  verbosity = 'high'
  disk_io   = 'high'
  max_seconds = 14400
/
&SYSTEM
  degauss =   1.4699723600d-02
  ecutwfc =   10.0000000000d+01
  ibrav = 0
  nat = 215
  nosym = .false.
  ntyp = 2
  occupations = 'smearing'
  smearing = 'mv'
  tot_charge = 2
  nspin = 2
  starting_magnetization(1) =  0.5
  starting_magnetization(2) = -0.5
  input_dft = 'pbe0'
  exx_fraction = 0.23
  ecutfock = 120
  ace = .true.
  localization_thr = 0.001
/
&ELECTRONS
  conv_thr =   4.3200000000d-08
  electron_maxstep = 80
  mixing_beta =   4.0000000000d-01
  adaptive_thr = .True.
  conv_thr_init = 1.D-3 
  conv_thr_multi = 1.D-2
/
&IONS
/
ATOMIC_SPECIES
B      10.811 B_ONCV_PBE-1.2.upf
N      14.0067 N_ONCV_PBE-1.2.upf
ATOMIC_POSITIONS (angstrom)
B             0.0000000000        0.0000000000        3.6241593448
B             0.0000000000        0.0000000000        7.2538466552
B             0.0000000000        3.6241593448       -0.0000000000
B             0.0050127129        3.6288818371        3.6288818371
B            -0.0050127129        3.6288818371        7.2491241629
B            -0.0000000000        7.2538466552        0.0000000000
B            -0.0050127129        7.2491241629        3.6288818371
B             0.0050127129        7.2491241629        7.2491241629
B             3.6241593448        0.0000000000        0.0000000000
B             3.6288818371        0.0050127129        3.6288818371
B             3.6288818371       -0.0050127129        7.2491241629
B             3.6288818371        3.6288818371        0.0050127129
B             3.6259201977        3.6259201977        3.6259201977
B             3.6261459301        3.6261459301        7.2518600699
B             3.6288818371        7.2491241629       -0.0050127129
B             3.6261459301        7.2518600699        3.6261459301
B             3.6259201977        7.2520858023        7.2520858023
B             7.2538466552        0.0000000000        0.0000000000
B             7.2491241629       -0.0050127129        3.6288818371
B             7.2491241629        0.0050127129        7.2491241629
B             7.2491241629        3.6288818371       -0.0050127129
B             7.2518600699        3.6261459301        3.6261459301
B             7.2520858023        3.6259201977        7.2520858023
B             7.2491241629        7.2491241629        0.0050127129
B             7.2520858023        7.2520858023        3.6259201977
B             7.2518600699        7.2518600699        7.2518600699
B             0.0068504638        1.8049654006        1.8049654006
B             0.0000000000        1.8130925055        5.4390030000
B            -0.0068504638        1.8049654006        9.0730405994
B             0.0000000000        5.4390030000        1.8130925055
B             0.0000000000        5.4390030000        5.4390030000
B            -0.0000000000        5.4390030000        9.0649134945
B            -0.0068504638        9.0730405994        1.8049654006
B            -0.0000000000        9.0649134945        5.4390030000
B             0.0068504638        9.0730405994        9.0730405994
B             3.6256052828        1.8134991090        1.8134991090
B             3.6263768636        1.8131827502        5.4384156829
B             3.6289305459        1.8138515692        9.0641544308
B             3.6263768636        5.4384156829        1.8131827502
B             3.6255723388        5.4390030000        5.4390030000
B             3.6263768636        5.4395903171        9.0648232498
B             3.6289305459        9.0641544308        1.8138515692
B             3.6263768636        9.0648232498        5.4395903171
B             3.6256052828        9.0645068910        9.0645068910
B             7.2490754541        1.8138515692        1.8138515692
B             7.2516291364        1.8131827502        5.4395903171
B             7.2524007172        1.8134991090        9.0645068910
B             7.2516291364        5.4395903171        1.8131827502
B             7.2524336612        5.4390030000        5.4390030000
B             7.2516291364        5.4384156829        9.0648232498
B             7.2524007172        9.0645068910        1.8134991090
B             7.2516291364        9.0648232498        5.4384156829
B             7.2490754541        9.0641544308        9.0641544308
B             1.8049654006        0.0068504638        1.8049654006
B             1.8130925055        0.0000000000        5.4390030000
B             1.8049654006       -0.0068504638        9.0730405994
B             1.8134991090        3.6256052828        1.8134991090
B             1.8131827502        3.6263768636        5.4384156829
B             1.8138515692        3.6289305459        9.0641544308
B             1.8138515692        7.2490754541        1.8138515692
B             1.8131827502        7.2516291364        5.4395903171
B             1.8134991090        7.2524007172        9.0645068910
B             5.4390030000        0.0000000000        1.8130925055
B             5.4390030000        0.0000000000        5.4390030000
B             5.4390030000       -0.0000000000        9.0649134945
B             5.4384156829        3.6263768636        1.8131827502
B             5.4390030000        3.6255723388        5.4390030000
B             5.4395903171        3.6263768636        9.0648232498
B             5.4395903171        7.2516291364        1.8131827502
B             5.4390030000        7.2524336612        5.4390030000
B             5.4384156829        7.2516291364        9.0648232498
B             9.0730405994       -0.0068504638        1.8049654006
B             9.0649134945       -0.0000000000        5.4390030000
B             9.0730405994        0.0068504638        9.0730405994
B             9.0641544308        3.6289305459        1.8138515692
B             9.0648232498        3.6263768636        5.4395903171
B             9.0645068910        3.6256052828        9.0645068910
B             9.0645068910        7.2524007172        1.8134991090
B             9.0648232498        7.2516291364        5.4384156829
B             9.0641544308        7.2490754541        9.0641544308
B             1.8049654006        1.8049654006        0.0068504638
B             1.8134991090        1.8134991090        3.6256052828
B             1.8138515692        1.8138515692        7.2490754541
B             1.8130925055        5.4390030000       -0.0000000000
B             1.8131827502        5.4384156829        3.6263768636
B             1.8131827502        5.4395903171        7.2516291364
B             1.8049654006        9.0730405994       -0.0068504638
B             1.8138515692        9.0641544308        3.6289305459
B             1.8134991090        9.0645068910        7.2524007172
B             5.4390030000        1.8130925055       -0.0000000000
B             5.4384156829        1.8131827502        3.6263768636
B             5.4395903171        1.8131827502        7.2516291364
B             5.4390030000        5.4390030000        0.0000000000
B             5.4390030000        5.4390030000        3.6255723388
B             5.4390030000        5.4390030000        7.2524336612
B             5.4390030000        9.0649134945        0.0000000000
B             5.4395903171        9.0648232498        3.6263768636
B             5.4384156829        9.0648232498        7.2516291364
B             9.0730405994        1.8049654006       -0.0068504638
B             9.0641544308        1.8138515692        3.6289305459
B             9.0645068910        1.8134991090        7.2524007172
B             9.0649134945        5.4390030000       -0.0000000000
B             9.0648232498        5.4395903171        3.6263768636
B             9.0648232498        5.4384156829        7.2516291364
B             9.0730405994        9.0730405994        0.0068504638
B             9.0645068910        9.0645068910        3.6256052828
B             9.0641544308        9.0641544308        7.2490754541
N             0.9056617186        0.9056617186        2.7183760023
N             0.9069049345        0.9069049345        6.3456836520
N             0.9912037974        0.9912037974        9.8868022026
N             0.9070624040        4.5328236408        2.7198652028
N             0.9081719175        4.5339928430        6.3440131570
N             0.9069049345        4.5323223480        9.9711010655
N             0.9131563748        8.1485351763        2.7294708237
N             0.9070624040        8.1581407972        6.3451823592
N             0.9056617186        8.1596299977        9.9723442814
N             4.5328236408        0.9070624040        2.7198652028
N             4.5339928430        0.9081719175        6.3440131570
N             4.5323223480        0.9069049345        9.9711010655
N             4.5324722178        4.5324722178        2.7200724722
N             4.5331571969        4.5331571969        6.3448488031
N             4.5339928430        4.5339928430        9.9698340825
N             4.5351672903        8.1564188312        2.7215871688
N             4.5324722178        8.1579335278        6.3455337822
N             4.5328236408        8.1581407972        9.9709435960
N             8.1485351763        0.9131563748        2.7294708237
N             8.1581407972        0.9070624040        6.3451823592
N             8.1596299977        0.9056617186        9.9723442814
N             8.1564188312        4.5351672903        2.7215871688
N             8.1579335278        4.5324722178        6.3455337822
N             8.1581407972        4.5328236408        9.9709435960
N             8.1591351930        8.1591351930        2.7188708070
N             8.1564188312        8.1564188312        6.3428387097
N             8.1485351763        8.1485351763        9.9648496252
N             0.9056617186        2.7183760023        0.9056617186
N             0.9070624040        2.7198652028        4.5328236408
N             0.9131563748        2.7294708237        8.1485351763
N             0.9069049345        6.3456836520        0.9069049345
N             0.9081719175        6.3440131570        4.5339928430
N             0.9070624040        6.3451823592        8.1581407972
N             0.9912037974        9.8868022026        0.9912037974
N             0.9069049345        9.9711010655        4.5323223480
N             0.9056617186        9.9723442814        8.1596299977
N             4.5328236408        2.7198652028        0.9070624040
N             4.5324722178        2.7200724722        4.5324722178
N             4.5351672903        2.7215871688        8.1564188312
N             4.5339928430        6.3440131570        0.9081719175
N             4.5331571969        6.3448488031        4.5331571969
N             4.5324722178        6.3455337822        8.1579335278
N             4.5323223480        9.9711010655        0.9069049345
N             4.5339928430        9.9698340825        4.5339928430
N             4.5328236408        9.9709435960        8.1581407972
N             8.1485351763        2.7294708237        0.9131563748
N             8.1564188312        2.7215871688        4.5351672903
N             8.1591351930        2.7188708070        8.1591351930
N             8.1581407972        6.3451823592        0.9070624040
N             8.1579335278        6.3455337822        4.5324722178
N             8.1564188312        6.3428387097        8.1564188312
N             8.1596299977        9.9723442814        0.9056617186
N             8.1581407972        9.9709435960        4.5328236408
N             8.1485351763        9.9648496252        8.1485351763
N             2.7183760023        0.9056617186        0.9056617186
N             2.7198652028        0.9070624040        4.5328236408
N             2.7294708237        0.9131563748        8.1485351763
N             2.7198652028        4.5328236408        0.9070624040
N             2.7200724722        4.5324722178        4.5324722178
N             2.7215871688        4.5351672903        8.1564188312
N             2.7294708237        8.1485351763        0.9131563748
N             2.7215871688        8.1564188312        4.5351672903
N             2.7188708070        8.1591351930        8.1591351930
N             6.3456836520        0.9069049345        0.9069049345
N             6.3440131570        0.9081719175        4.5339928430
N             6.3451823592        0.9070624040        8.1581407972
N             6.3440131570        4.5339928430        0.9081719175
N             6.3448488031        4.5331571969        4.5331571969
N             6.3455337822        4.5324722178        8.1579335278
N             6.3451823592        8.1581407972        0.9070624040
N             6.3455337822        8.1579335278        4.5324722178
N             6.3428387097        8.1564188312        8.1564188312
N             9.8868022026        0.9912037974        0.9912037974
N             9.9711010655        0.9069049345        4.5323223480
N             9.9723442814        0.9056617186        8.1596299977
N             9.9711010655        4.5323223480        0.9069049345
N             9.9698340825        4.5339928430        4.5339928430
N             9.9709435960        4.5328236408        8.1581407972
N             9.9723442814        8.1596299977        0.9056617186
N             9.9709435960        8.1581407972        4.5328236408
N             9.9648496252        8.1485351763        8.1485351763
N             2.7188708070        2.7188708070        2.7188708070
N             2.7215871688        2.7215871688        6.3428387097
N             2.7294708237        2.7294708237        9.9648496252
N             2.7215871688        6.3428387097        2.7215871688
N             2.7200724722        6.3455337822        6.3455337822
N             2.7198652028        6.3451823592        9.9709435960
N             2.7294708237        9.9648496252        2.7294708237
N             2.7198652028        9.9709435960        6.3451823592
N             2.7183760023        9.9723442814        9.9723442814
N             6.3428387097        2.7215871688        2.7215871688
N             6.3455337822        2.7200724722        6.3455337822
N             6.3451823592        2.7198652028        9.9709435960
N             6.3455337822        6.3455337822        2.7200724722
N             6.3448488031        6.3448488031        6.3448488031
N             6.3440131570        6.3440131570        9.9698340825
N             6.3451823592        9.9709435960        2.7198652028
N             6.3440131570        9.9698340825        6.3440131570
N             6.3456836520        9.9711010655        9.9711010655
N             9.9648496252        2.7294708237        2.7294708237
N             9.9709435960        2.7198652028        6.3451823592
N             9.9723442814        2.7183760023        9.9723442814
N             9.9709435960        6.3451823592        2.7198652028
N             9.9698340825        6.3440131570        6.3440131570
N             9.9711010655        6.3456836520        9.9711010655
N             9.9723442814        9.9723442814        2.7183760023
N             9.9711010655        9.9711010655        6.3456836520
N             9.8868022026        9.8868022026        9.8868022026
K_POINTS gamma
CELL_PARAMETERS angstrom
     10.8780060000       0.0000000000       0.0000000000
      0.0000000000      10.8780060000       0.0000000000
      0.0000000000       0.0000000000      10.8780060000
