&CONTROL
  calculation = 'scf'
  etot_conv_thr =   2.1600000000d-03
  forc_conv_thr =   1.0000000000d-04
  outdir = './out/'
  prefix = 'aiida'
  pseudo_dir = './pseudo/'
  tprnfor = .true.
  !tstress = .true.
  verbosity = 'high'
  disk_io   = 'high'
  max_seconds = 14400
  wf_collect=.TRUE.
/
&SYSTEM
  degauss =   1.4699723600d-02
  ecutwfc =   10.0000000000d+01
  ibrav = 0
  nat = 216
  nosym = .false.
  ntyp = 2
  occupations = 'smearing'
  smearing = 'mv'
  tot_charge = 2
  nspin = 2
  starting_magnetization(1) =  0.5
  starting_magnetization(2) = -0.5
  input_dft = 'pbe0'
  exx_fraction = 0.23
  ecutfock = 120
  ace = .true.
  localization_thr = 0.001
/
&ELECTRONS
  conv_thr =   4.3200000000d-08
  electron_maxstep = 80
  mixing_beta =   4.0000000000d-01
  adaptive_thr = .True.
  conv_thr_init = 1.D-3 
  conv_thr_multi = 1.D-2
/
&IONS
/
ATOMIC_SPECIES
B      10.811 B_ONCV_PBE-1.2.upf
N      14.0067 N_ONCV_PBE-1.2.upf

ATOMIC_POSITIONS (angstrom)
B             0.1334389933        0.1334389933        0.1334389933
B            -0.0007176748       -0.0007176748        3.6341254375
B             0.0004050792        0.0004050792        7.2367130934
B            -0.0007176748        3.6341254375       -0.0007176748
B             0.0057226344        3.6299916544        3.6299916544
B            -0.0000119250        3.6294222241        7.2494702688
B             0.0004050792        7.2367130934        0.0004050792
B            -0.0000119250        7.2494702688        3.6294222241
B             0.0238190804        7.2293908625        7.2293908625
B             3.6341254375       -0.0007176748       -0.0007176748
B             3.6299916544        0.0057226344        3.6299916544
B             3.6294222241       -0.0000119250        7.2494702688
B             3.6299916544        3.6299916544        0.0057226344
B             3.6291562032        3.6291562032        3.6291562032
B             3.6258868358        3.6258868358        7.2498110533
B             3.6294222241        7.2494702688       -0.0000119250
B             3.6258868358        7.2498110533        3.6258868358
B             3.6353618864        7.2456516713        7.2456516713
B             7.2367130934        0.0004050792        0.0004050792
B             7.2494702688       -0.0000119250        3.6294222241
B             7.2293908625        0.0238190804        7.2293908625
B             7.2494702688        3.6294222241       -0.0000119250
B             7.2498110533        3.6258868358        3.6258868358
B             7.2456516713        3.6353618864        7.2456516713
B             7.2293908625        7.2293908625        0.0238190804
B             7.2456516713        7.2456516713        3.6353618864
B             7.2522960436        7.2522960436        7.2522960436
B             0.0223581464        1.8403412678        1.8403412678
B             0.0002419563        1.8150945889        5.4366909517
B            -0.0091704150        1.8314537811        9.0589867046
B             0.0002419563        5.4366909517        1.8150945889
B             0.0059126252        5.4351706026        5.4351706026
B             0.0018688116        5.4342920793        9.0630147872
B            -0.0091704150        9.0589867046        1.8314537811
B             0.0018688116        9.0630147872        5.4342920793
B             0.1191655696        8.9811093878        8.9811093878
B             3.6357196835        1.8210849024        1.8210849024
B             3.6260718682        1.8159544107        5.4394134294
B             3.6284539232        1.8127731450        9.0638481912
B             3.6260718682        5.4394134294        1.8159544107
B             3.6289967740        5.4370110190        5.4370110190
B             3.6309047069        5.4344311387        9.0613004545
B             3.6284539232        9.0638481912        1.8127731450
B             3.6309047069        9.0613004545        5.4344311387
B             3.6346490070        9.0615361169        9.0615361169
B             7.2513737353        1.8129734929        1.8129734929
B             7.2453582975        1.8207069468        5.4310393246
B             7.2266635606        1.8403962768        9.0502586349
B             7.2453582975        5.4310393246        1.8207069468
B             7.2501909963        5.4397088859        5.4397088859
B             7.2507487189        5.4376256892        9.0652457628
B             7.2266635606        9.0502586349        1.8403962768
B             7.2507487189        9.0652457628        5.4376256892
B             7.2360923876        9.0667016369        9.0667016369
B             1.8403412678        0.0223581464        1.8403412678
B             1.8150945889        0.0002419563        5.4366909517
B             1.8314537811       -0.0091704150        9.0589867046
B             1.8210849024        3.6357196835        1.8210849024
B             1.8159544107        3.6260718682        5.4394134294
B             1.8127731450        3.6284539232        9.0638481912
B             1.8129734929        7.2513737353        1.8129734929
B             1.8207069468        7.2453582975        5.4310393246
B             1.8403962768        7.2266635606        9.0502586349
B             5.4366909517        0.0002419563        1.8150945889
B             5.4351706026        0.0059126252        5.4351706026
B             5.4342920793        0.0018688116        9.0630147872
B             5.4394134294        3.6260718682        1.8159544107
B             5.4370110190        3.6289967740        5.4370110190
B             5.4344311387        3.6309047069        9.0613004545
B             5.4310393246        7.2453582975        1.8207069468
B             5.4397088859        7.2501909963        5.4397088859
B             5.4376256892        7.2507487189        9.0652457628
B             9.0589867046       -0.0091704150        1.8314537811
B             9.0630147872        0.0018688116        5.4342920793
B             8.9811093878        0.1191655696        8.9811093878
B             9.0638481912        3.6284539232        1.8127731450
B             9.0613004545        3.6309047069        5.4344311387
B             9.0615361169        3.6346490070        9.0615361169
B             9.0502586349        7.2266635606        1.8403962768
B             9.0652457628        7.2507487189        5.4376256892
B             9.0667016369        7.2360923876        9.0667016369
B             1.8403412678        1.8403412678        0.0223581464
B             1.8210849024        1.8210849024        3.6357196835
B             1.8129734929        1.8129734929        7.2513737353
B             1.8150945889        5.4366909517        0.0002419563
B             1.8159544107        5.4394134294        3.6260718682
B             1.8207069468        5.4310393246        7.2453582975
B             1.8314537811        9.0589867046       -0.0091704150
B             1.8127731450        9.0638481912        3.6284539232
B             1.8403962768        9.0502586349        7.2266635606
B             5.4366909517        1.8150945889        0.0002419563
B             5.4394134294        1.8159544107        3.6260718682
B             5.4310393246        1.8207069468        7.2453582975
B             5.4351706026        5.4351706026        0.0059126252
B             5.4370110190        5.4370110190        3.6289967740
B             5.4397088859        5.4397088859        7.2501909963
B             5.4342920793        9.0630147872        0.0018688116
B             5.4344311387        9.0613004545        3.6309047069
B             5.4376256892        9.0652457628        7.2507487189
B             9.0589867046        1.8314537811       -0.0091704150
B             9.0638481912        1.8127731450        3.6284539232
B             9.0502586349        1.8403962768        7.2266635606
B             9.0630147872        5.4342920793        0.0018688116
B             9.0613004545        5.4344311387        3.6309047069
B             9.0652457628        5.4376256892        7.2507487189
B             8.9811093878        8.9811093878        0.1191655696
B             9.0615361169        9.0615361169        3.6346490070
B             9.0667016369        9.0667016369        7.2360923876
N             0.9085271094        0.9085271094        2.7203671236
N             0.9068425908        0.9068425908        6.3443848844
N             0.8939824556        0.8939824556        9.9649451603
N             0.9079493533        4.5328284410        2.7203520886
N             0.9083920813        4.5318676357        6.3445577387
N             0.9071807860        4.5327230788        9.9717617300
N             0.9059411625        8.1603417916        2.7193246148
N             0.9119447569        8.1556707934        6.3419279641
N             0.9276290704        8.1414214530        9.9699487738
N             4.5328284410        0.9079493533        2.7203520886
N             4.5318676357        0.9083920813        6.3445577387
N             4.5327230788        0.9071807860        9.9717617300
N             4.5328330368        4.5328330368        2.7204472755
N             4.5330330070        4.5330330070        6.3454572321
N             4.5323784610        4.5323784610        9.9721267953
N             4.5308458513        8.1587084618        2.7207275720
N             4.5351247669        8.1586025020        6.3444312744
N             4.5340890146        8.1581171298        9.9720395028
N             8.1603417916        0.9059411625        2.7193246148
N             8.1556707934        0.9119447569        6.3419279641
N             8.1414214530        0.9276290704        9.9699487738
N             8.1587084618        4.5308458513        2.7207275720
N             8.1586025020        4.5351247669        6.3444312744
N             8.1581171298        4.5340890146        9.9720395028
N             8.1547505371        8.1547505371        2.7267350561
N             8.1600827458        8.1600827458        6.3461555926
N             8.1539195158        8.1539195158        9.9691531922
N             0.9085271094        2.7203671236        0.9085271094
N             0.9079493533        2.7203520886        4.5328284410
N             0.9059411625        2.7193246148        8.1603417916
N             0.9068425908        6.3443848844        0.9068425908
N             0.9083920813        6.3445577387        4.5318676357
N             0.9119447569        6.3419279641        8.1556707934
N             0.8939824556        9.9649451603        0.8939824556
N             0.9071807860        9.9717617300        4.5327230788
N             0.9276290704        9.9699487738        8.1414214530
N             4.5328284410        2.7203520886        0.9079493533
N             4.5328330368        2.7204472755        4.5328330368
N             4.5308458513        2.7207275720        8.1587084618
N             4.5318676357        6.3445577387        0.9083920813
N             4.5330330070        6.3454572321        4.5330330070
N             4.5351247669        6.3444312744        8.1586025020
N             4.5327230788        9.9717617300        0.9071807860
N             4.5323784610        9.9721267953        4.5323784610
N             4.5340890146        9.9720395028        8.1581171298
N             8.1603417916        2.7193246148        0.9059411625
N             8.1587084618        2.7207275720        4.5308458513
N             8.1547505371        2.7267350561        8.1547505371
N             8.1556707934        6.3419279641        0.9119447569
N             8.1586025020        6.3444312744        4.5351247669
N             8.1600827458        6.3461555926        8.1600827458
N             8.1414214530        9.9699487738        0.9276290704
N             8.1581171298        9.9720395028        4.5340890146
N             8.1539195158        9.9691531922        8.1539195158
N             2.7203671236        0.9085271094        0.9085271094
N             2.7203520886        0.9079493533        4.5328284410
N             2.7193246148        0.9059411625        8.1603417916
N             2.7203520886        4.5328284410        0.9079493533
N             2.7204472755        4.5328330368        4.5328330368
N             2.7207275720        4.5308458513        8.1587084618
N             2.7193246148        8.1603417916        0.9059411625
N             2.7207275720        8.1587084618        4.5308458513
N             2.7267350561        8.1547505371        8.1547505371
N             6.3443848844        0.9068425908        0.9068425908
N             6.3445577387        0.9083920813        4.5318676357
N             6.3419279641        0.9119447569        8.1556707934
N             6.3445577387        4.5318676357        0.9083920813
N             6.3454572321        4.5330330070        4.5330330070
N             6.3444312744        4.5351247669        8.1586025020
N             6.3419279641        8.1556707934        0.9119447569
N             6.3444312744        8.1586025020        4.5351247669
N             6.3461555926        8.1600827458        8.1600827458
N             9.9649451603        0.8939824556        0.8939824556
N             9.9717617300        0.9071807860        4.5327230788
N             9.9699487738        0.9276290704        8.1414214530
N             9.9717617300        4.5327230788        0.9071807860
N             9.9721267953        4.5323784610        4.5323784610
N             9.9720395028        4.5340890146        8.1581171298
N             9.9699487738        8.1414214530        0.9276290704
N             9.9720395028        8.1581171298        4.5340890146
N             9.9691531922        8.1539195158        8.1539195158
N             2.7208834501        2.7208834501        2.7208834501
N             2.7190239206        2.7190239206        6.3461955728
N             2.7183979565        2.7183979565        9.9718415424
N             2.7190239206        6.3461955728        2.7190239206
N             2.7222509112        6.3440481423        6.3440481423
N             2.7257474628        6.3397928601        9.9717108192
N             2.7183979565        9.9718415424        2.7183979565
N             2.7257474628        9.9717108192        6.3397928601
N             2.7227995852        9.9703996019        9.9703996019
N             6.3461955728        2.7190239206        2.7190239206
N             6.3440481423        2.7222509112        6.3440481423
N             6.3397928601        2.7257474628        9.9717108192
N             6.3440481423        6.3440481423        2.7222509112
N             6.3466872390        6.3466872390        6.3466872390
N             6.3448769115        6.3448769115        9.9727719185
N             6.3397928601        9.9717108192        2.7257474628
N             6.3448769115        9.9727719185        6.3448769115
N             6.3451962077        9.9723313185        9.9723313185
N             9.9718415424        2.7183979565        2.7183979565
N             9.9717108192        2.7257474628        6.3397928601
N             9.9703996019        2.7227995852        9.9703996019
N             9.9717108192        6.3397928601        2.7257474628
N             9.9727719185        6.3448769115        6.3448769115
N             9.9723313185        6.3451962077        9.9723313185
N             9.9703996019        9.9703996019        2.7227995852
N             9.9723313185        9.9723313185        6.3451962077
B             9.8674481581        9.8674481581        9.8674481581
K_POINTS gamma
CELL_PARAMETERS angstrom
     10.8780060000       0.0000000000       0.0000000000
      0.0000000000      10.8780060000       0.0000000000
      0.0000000000       0.0000000000      10.8780060000
