&CONTROL
    calculation = 'scf',
    etot_conv_thr =   1.0000000000d-03
    forc_conv_thr =   1.0000000000d-04
  outdir = './out/'
  prefix = 'aiida'
  pseudo_dir = './pseudo/'
    verbosity='high'
    tprnfor=.False.
    tstress=.False.
    wf_collect=.TRUE.
    verbosity = 'high'
    restart_mode = 'restart'
    disk_io = 'high'
/
&SYSTEM
  degauss =   1.4699723600d-02
  ecutwfc =   10.0000000000d+01
  ibrav = 0
  nat = 217
  nosym = .false.
  ntyp = 2
  occupations = 'smearing'
  smearing = 'mv'
  tot_charge = 0
  nspin = 2
  starting_magnetization(1) =  0.5
  starting_magnetization(2) = -0.5
  input_dft = 'pbe0'
  exx_fraction = 0.23
  ecutfock = 120
  ace = .true.
  localization_thr = 0.001
/
&ELECTRONS
    conv_thr=1.0D-8
    adaptive_thr = .False.
    conv_thr_init = 1.D-3 
    conv_thr_multi = 1.D-2
    electron_maxstep= 500
    mixing_mode = 'plain'
    mixing_beta = 0.6
    diagonalization = 'david'
    diago_full_acc = .TRUE.
    startingpot = 'file'
    startingwfc = 'file'
/
&IONS
/
ATOMIC_SPECIES
B      10.811 B_ONCV_PBE-1.2.upf
N      14.0067 N_ONCV_PBE-1.2.upf
ATOMIC_POSITIONS (angstrom)
B            -0.0523761516        0.2260908467       -0.0523761516
B             0.0157252495        0.0109150586        3.6183542400
B            -0.0012431868        0.0055746206        7.2528664735
B            -0.0067909916        3.6424782830       -0.0067909916
B            -0.0049983235        3.6430079556        3.6409119581
B            -0.0019813862        3.6374892840        7.2394393488
B            -0.0175843916        7.1988403962       -0.0175843916
B            -0.0045784097        7.2062329858        3.6655197965
B            -0.0010083335        7.2532136429        7.2488128371
B             3.6183542400        0.0109150586        0.0157252495
B             3.6205734786        0.0101554819        3.6205734786
B             3.6241074838        0.0030577972        7.2549051394
B             3.6409119581        3.6430079556       -0.0049983235
B             3.6358088205        3.6386119938        3.6358088205
B             3.6306434576        3.6281312932        7.2488700575
B             3.6655197965        7.2062329858       -0.0045784097
B             3.6288191811        7.2537558283        3.6288191811
B             3.6309768716        7.2563142724        7.2476992005
B             7.2528664735        0.0055746206       -0.0012431868
B             7.2549051394        0.0030577972        3.6241074838
B             7.2529494658        0.0037749076        7.2529494658
B             7.2394393488        3.6374892840       -0.0019813862
B             7.2488700575        3.6281312932        3.6306434576
B             7.2495970420        3.6294413758        7.2495970420
B             7.2488128371        7.2532136429       -0.0010083335
B             7.2476992005        7.2563142724        3.6309768716
B             7.2510122315        7.2586533399        7.2510122315
B            -0.0177012480        1.8749235489        1.8307413853
B            -0.0009170757        1.8202009857        5.4418179704
B            -0.0042963414        1.8672485809        9.0254733509
B            -0.0068933952        5.4314133136        1.8197410739
B            -0.0020788467        5.4359147071        5.4511463269
B            -0.0049867539        5.4307339256        9.0497661403
B            -0.0524475179        8.8472580103        1.8659763749
B            -0.0012818453        9.0676819983        5.4380472050
B             0.0158585167        9.0624293174        9.0729764084
B             3.6653965259        1.8672915694        1.8174468907
B             3.6309662359        1.8168237881        5.4430285177
B             3.6285720945        1.8196604336        9.0622520228
B             3.6410629972        5.4307345676        1.8178774360
B             3.6306725344        5.4450372590        5.4418070907
B             3.6358305826        5.4348618265        9.0549685915
B             3.6183415858        9.0623227478        1.7975052097
B             3.6242453919        9.0700978793        5.4361920247
B             3.6204592639        9.0630417315        9.0705689783
B             7.2488043465        1.8201543082        1.8138123374
B             7.2509701816        1.8144253932        5.4398395014
B             7.2477761231        1.8168326241        9.0599754711
B             7.2394213703        5.4360122578        1.8147763888
B             7.2495791729        5.4435124772        5.4411980366
B             7.2489914627        5.4450277245        9.0601491418
B             7.2528809318        9.0677413331        1.8141212372
B             7.2529174319        9.0693959907        5.4380280724
B             7.2549021642        9.0702002309        9.0667606414
B             1.8659242845        0.2262723373        1.8659242845
B             1.8142148382        0.0054626643        5.4380293290
B             1.7974491733        0.0108984450        9.0728967674
B             1.8197453483        3.6426436518        1.8197453483
B             1.8148165979        3.6374303891        5.4511055166
B             1.8178758781        3.6430679903        9.0496896847
B             1.8307769335        7.1986549935        1.8307769335
B             1.8137486379        7.2531470879        5.4418897729
B             1.8174873647        7.2062946307        9.0254070793
B             5.4380293290        0.0054626643        1.8142148382
B             5.4380841851        0.0036305657        5.4380841851
B             5.4360264692        0.0030397674        9.0667236651
B             5.4511055166        3.6374303891        1.8148165979
B             5.4411613921        3.6294191091        5.4411613921
B             5.4417614435        3.6280763314        9.0601727814
B             5.4418897729        7.2531470879        1.8137486379
B             5.4399251496        7.2585706355        5.4399251496
B             5.4431451303        7.2562683145        9.0598099319
B             9.0728967674        0.0108984450        1.7974491733
B             9.0667236651        0.0030397674        5.4360264692
B             9.0707930986        0.0102422752        9.0707930986
B             9.0496896847        3.6430679903        1.8178758781
B             9.0601727814        3.6280763314        5.4417614435
B             9.0550925534        3.6385042995        9.0550925534
B             9.0254070793        7.2062946307        1.8174873647
B             9.0598099319        7.2562683145        5.4431451303
B             9.0623329059        7.2537594411        9.0623329059
B             1.8307413853        1.8749235489       -0.0177012480
B             1.8174468907        1.8672915694        3.6653965259
B             1.8138123374        1.8201543082        7.2488043465
B             1.8197410739        5.4314133136       -0.0068933952
B             1.8178774360        5.4307345676        3.6410629972
B             1.8147763888        5.4360122578        7.2394213703
B             1.8659763749        8.8472580103       -0.0524475179
B             1.7975052097        9.0623227478        3.6183415858
B             1.8141212372        9.0677413331        7.2528809318
B             5.4418179704        1.8202009857       -0.0009170757
B             5.4430285177        1.8168237881        3.6309662359
B             5.4398395014        1.8144253932        7.2509701816
B             5.4511463269        5.4359147071       -0.0020788467
B             5.4418070907        5.4450372590        3.6306725344
B             5.4411980366        5.4435124772        7.2495791729
B             5.4380472050        9.0676819983       -0.0012818453
B             5.4361920247        9.0700978793        3.6242453919
B             5.4380280724        9.0693959907        7.2529174319
B             9.0254733509        1.8672485809       -0.0042963414
B             9.0622520228        1.8196604336        3.6285720945
B             9.0599754711        1.8168326241        7.2477761231
B             9.0497661403        5.4307339256       -0.0049867539
B             9.0549685915        5.4348618265        3.6358305826
B             9.0601491418        5.4450277245        7.2489914627
B             9.0729764084        9.0624293174        0.0158585167
B             9.0705689783        9.0630417315        3.6204592639
B             9.0667606414        9.0702002309        7.2549021642
N             0.9120118866        1.0121146074        2.7850684975
N             0.9065262799        0.9107407296        6.3452762644
N             0.9011883048        1.0119927276        9.9061029974
N             0.9065533476        4.5371528787        2.7287311560
N             0.9064545049        4.5368059469        6.3451790106
N             0.9064891975        4.5369646421        9.9619307215
N             0.9011635932        8.0612612088        2.7851313602
N             0.9064769189        8.1627304590        6.3453318125
N             0.9124407288        8.0615154742        9.9060881135
N             4.5384758713        0.9192423187        2.7215611642
N             4.5336288062        0.9081558195        6.3474168895
N             4.5283040385        0.9094216095        9.9717944479
N             4.5439701996        4.5364902675        2.7264979843
N             4.5362659675        4.5365686398        6.3453003365
N             4.5438799466        4.5369761832        9.9642448327
N             4.5284268984        8.1641156501        2.7190271183
N             4.5336314987        8.1650685698        6.3433831801
N             4.5386092250        8.1540770432        9.9691896391
N             8.1627868746        0.9093438739        2.7188926461
N             8.1574575022        0.9081751024        6.3432767189
N             8.1525664587        0.9192994963        9.9694430918
N             8.1468571143        4.5373256550        2.7263906806
N             8.1546797249        4.5366064839        6.3452933576
N             8.1469310510        4.5364831451        9.9642300662
N             8.1525696519        8.1542550052        2.7213654193
N             8.1574213443        8.1651569236        6.3474967520
N             8.1628432662        8.1641972105        9.9718861025
N             0.9067126996        2.7490635931        0.9067126996
N             0.9069084052        2.7488376871        4.5572630913
N             0.9064016250        2.7489700836        8.1331750275
N             0.9065324872        6.3248592137        0.9065324872
N             0.9059350406        6.3247094853        4.5574493673
N             0.9068989563        6.3248099931        8.1332444811
N             0.9073470843        9.3344682087        0.9073470843
N             0.9067214187        9.9754327213        4.5273487603
N             0.9066319219        9.9755885442        8.1639846742
N             4.5572630913        2.7488376871        0.9069084052
N             4.5376694149        2.7234286225        4.5376694149
N             4.5356757682        2.7214953559        8.1553045331
N             4.5574493673        6.3247094853        0.9059350406
N             4.5357979704        6.3514585493        4.5357979704
N             4.5378148231        6.3495423624        8.1532285879
N             4.5273487603        9.9754327213        0.9067214187
N             4.5273859819        9.9775631208        4.5273859819
N             4.5270970548        9.9732414532        8.1640183174
N             8.1331750275        2.7489700836        0.9064016250
N             8.1553045331        2.7214953559        4.5356757682
N             8.1534562392        2.7232424616        8.1534562392
N             8.1332444811        6.3248099931        0.9068989563
N             8.1532285879        6.3495423624        4.5378148231
N             8.1554751530        6.3513876481        8.1554751530
N             8.1639846742        9.9755885442        0.9066319219
N             8.1640183174        9.9732414532        4.5270970548
N             8.1641257540        9.9778579411        8.1641257540
N             2.7850684975        1.0121146074        0.9120118866
N             2.7215611642        0.9192423187        4.5384758713
N             2.7188926461        0.9093438739        8.1627868746
N             2.7287311560        4.5371528787        0.9065533476
N             2.7264979843        4.5364902675        4.5439701996
N             2.7263906806        4.5373256550        8.1468571143
N             2.7851313602        8.0612612088        0.9011635932
N             2.7190271183        8.1641156501        4.5284268984
N             2.7213654193        8.1542550052        8.1525696519
N             6.3452762644        0.9107407296        0.9065262799
N             6.3474168895        0.9081558195        4.5336288062
N             6.3432767189        0.9081751024        8.1574575022
N             6.3451790106        4.5368059469        0.9064545049
N             6.3453003365        4.5365686398        4.5362659675
N             6.3452933576        4.5366064839        8.1546797249
N             6.3453318125        8.1627304590        0.9064769189
N             6.3433831801        8.1650685698        4.5336314987
N             6.3474967520        8.1651569236        8.1574213443
N             9.9061029974        1.0119927276        0.9011883048
N             9.9717944479        0.9094216095        4.5283040385
N             9.9694430918        0.9192994963        8.1525664587
N             9.9619307215        4.5369646421        0.9064891975
N             9.9642448327        4.5369761832        4.5438799466
N             9.9642300662        4.5364831451        8.1469310510
N             9.9060881135        8.0615154742        0.9124407288
N             9.9691896391        8.1540770432        4.5386092250
N             9.9718861025        8.1641972105        8.1628432662
N             2.7332155464        2.7507851954        2.7332155464
N             2.7239712107        2.7223967080        6.3472646829
N             2.7320785102        2.7503237639        9.9585246830
N             2.7322766416        6.3234691888        2.7322766416
N             2.7239896935        6.3505220808        6.3429898315
N             2.7334209165        6.3231505579        9.9574020904
N             2.6884251869        9.9953791376        2.6884251869
N             2.7183226297        9.9754981299        6.3453668245
N             2.6883736821        9.9559759258       10.0030678203
N             6.3472646829        2.7223967080        2.7239712107
N             6.3452803420        2.7212232280        6.3452803420
N             6.3431301275        2.7225234730        9.9666419427
N             6.3429898315        6.3505220808        2.7239896935
N             6.3452892931        6.3515066326        6.3452892931
N             6.3474358024        6.3505182970        9.9664838929
N             6.3453668245        9.9754981299        2.7183226297
N             6.3453797887        9.9754215382        6.3453797887
N             6.3452963949        9.9755036779        9.9723143719
N             9.9585246830        2.7503237639        2.7320785102
N             9.9666419427        2.7225234730        6.3431301275
N             9.9576227676        2.7504510274        9.9576227676
N             9.9574020904        6.3231505579        2.7334209165
N             9.9664838929        6.3505182970        6.3474358024
N             9.9587872243        6.3235298993        9.9587872243
N            10.0030678203        9.9559759258        2.6883736821
N             9.9723143719        9.9755036779        6.3452963949
N            10.0034698064        9.9954446873       10.0034698064
N             0.9068703055       -0.2612037206        0.9068703055
K_POINTS gamma
CELL_PARAMETERS angstrom
     10.8780060000       0.0000000000       0.0000000000
      0.0000000000      10.8780060000       0.0000000000
      0.0000000000       0.0000000000      10.8780060000
