&CONTROL
  calculation = 'scf'
  etot_conv_thr =   2.1600000000d-03
  forc_conv_thr =   1.0000000000d-04
  outdir = './out/'
  prefix = 'aiida'
  pseudo_dir = './pseudo/'
  tprnfor = .true.
  !tstress = .true.
  verbosity = 'high'
  disk_io   = 'high'
  max_seconds = 14400
/
&SYSTEM
  degauss =   1.4699723600d-02
  ecutwfc =   10.0000000000d+01
  ibrav = 0
  nat = 215
  nosym = .false.
  ntyp = 2
  occupations = 'smearing'
  smearing = 'mv'
  tot_charge = -2
  nspin = 2
  starting_magnetization(1) =  0.5
  starting_magnetization(2) = -0.5
  input_dft = 'pbe0'
  exx_fraction = 0.23
  ecutfock = 120
  ace = .true.
  localization_thr = 0.001
/
&ELECTRONS
  conv_thr =   4.3200000000d-08
  electron_maxstep = 80
  mixing_beta =   4.0000000000d-01
  adaptive_thr = .True.
  conv_thr_init = 1.D-3 
  conv_thr_multi = 1.D-2
/
&IONS
/
ATOMIC_SPECIES
B      10.811 B_ONCV_PBE-1.2.upf
N      14.0067 N_ONCV_PBE-1.2.upf
ATOMIC_POSITIONS (angstrom)
B             0.0052912899        0.0052912899        0.0075959041
N            -0.1881734313       -0.1881734313        3.8141765986
B             0.0028580297        0.0028580297        7.2448535924
B             0.0049401047        3.6309604460       -0.0049572787
B             0.0052913474        3.6184072530        3.6207118672
B            -0.0021812980        3.6345448099        7.2586320097
B            -0.0021812405        7.2453736659       -0.0085416528
B             0.0028579722        7.2591520832        3.6231451274
B             0.0081163839        7.2457278029        7.2582778829
B             3.6309604460        0.0049401047       -0.0049572787
B             3.6184072530        0.0052913474        3.6207118672
B             3.6345448099       -0.0021812980        7.2586320097
B             3.6299366375        3.6299366375       -0.0039334229
B             3.6309604770        3.6309604770        3.6210630936
B             3.6258885270        3.6258885270        7.2470759685
B             3.6258884759        7.2569296662        0.0001146237
B             3.6345448610        7.2453736250        3.6281844487
B             3.6307545399        7.2516761212        7.2523294822
B             7.2453736659       -0.0021812405       -0.0085416528
B             7.2591520832        0.0028579722        3.6231451274
B             7.2457278029        0.0081163839        7.2582778829
B             7.2569296662        3.6258884759        0.0001146237
B             7.2453736250        3.6345448610        3.6281844487
B             7.2516761212        3.6307545399        7.2523294822
B             7.2516761624        7.2516761624       -0.0047512841
B             7.2457277617        7.2457277617        3.6178868719
B             7.2575901717        7.2575901717        7.2464154119
B             0.0604825603        1.8198704378        1.8061291912
B            -0.0211491885        1.8265795545        5.4393369991
B             0.0036947626        1.8128814119        9.0637236282
B             0.0036948308        5.4402855573        1.8131182089
B             0.0031147685        5.4380022759        5.4365002750
B             0.0024344866        5.4371171616        9.0668920321
B            -0.0211492567        9.0646721864        1.7994200663
B             0.0275205722        9.0644890476        5.4395201461
B             0.0031148367        9.0675089105        9.0660069096
B             3.6337144091        1.8188803763        1.8071192191
B             3.6162367047        1.8124340479        5.4273179278
B             3.6271896742        1.8136573780        9.0631155627
B             3.6271896240        5.4408937219        1.8123421760
B             3.6289076315        5.4361818058        5.4393039401
B             3.6284071886        5.4388684357        9.0651407257
B             3.6162367549        9.0766913568        1.8135655061
B             3.6338922938        9.0593158341        5.4446933273
B             3.6289076940        9.0647052622        9.0678273965
B             7.2596845010        1.8071171870        1.8188823448
B             7.2464668803        1.8190857278        5.4449622443
B             7.2543957437        1.8148352834        9.0695542103
B             7.2543958057        5.4344549415        1.8111643024
B             7.2534180214        5.4420429336        5.4387900148
B             7.2542609378        5.4395223356        9.0644869268
B             7.2464668183        9.0590469075        1.8069138580
B             7.2599177499        9.0734451496        5.4305641128
B             7.2534179707        9.0652192193        9.0619663005
B             1.8198704378        0.0604825603        1.8061291912
B             1.8265795545       -0.0211491885        5.4393369991
B             1.8128814119        0.0036947626        9.0637236282
B             1.8188803763        3.6337144091        1.8071192191
B             1.8124340479        3.6162367047        5.4273179278
B             1.8136573780        3.6271896742        9.0631155627
B             1.8071171870        7.2596845010        1.8188823448
B             1.8190857278        7.2464668803        5.4449622443
B             1.8148352834        7.2543957437        9.0695542103
B             5.4402855573        0.0036948308        1.8131182089
B             5.4380022759        0.0031147685        5.4365002750
B             5.4371171616        0.0024344866        9.0668920321
B             5.4408937219        3.6271896240        1.8123421760
B             5.4361818058        3.6289076315        5.4393039401
B             5.4388684357        3.6284071886        9.0651407257
B             5.4344549415        7.2543958057        1.8111643024
B             5.4420429336        7.2534180214        5.4387900148
B             5.4395223356        7.2542609378        9.0644869268
B             9.0646721864       -0.0211492567        1.7994200663
B             9.0644890476        0.0275205722        5.4395201461
B             9.0675089105        0.0031148367        9.0660069096
B             9.0766913568        3.6162367549        1.8135655061
B             9.0593158341        3.6338922938        5.4446933273
B             9.0647052622        3.6289076940        9.0678273965
B             9.0590469075        7.2464668183        1.8069138580
B             9.0734451496        7.2599177499        5.4305641128
B             9.0652192193        7.2534179707        9.0619663005
B             1.8188803931        1.8188803931       -0.0077111146
B             1.8198704210        1.8198704210        3.5655207342
B             1.8071171870        1.8071171870        7.2443210700
B             1.8136574184        5.4408936714       -0.0011864597
B             1.8128813855        5.4402856078        3.6223083335
B             1.8148352738        5.4344549415        7.2496098657
B             1.8124340743        9.0766913082        0.0097663914
B             1.8265795141        9.0646722350        3.6471524030
B             1.8190857374        9.0590469075        7.2575387291
B             5.4408936714        1.8136574184       -0.0011864597
B             5.4402856078        1.8128813855        3.6223083335
B             5.4344549415        1.8148352738        7.2496098657
B             5.4388684862        5.4388684862       -0.0024040243
B             5.4371171616        5.4371171616        3.6235686772
B             5.4395222851        5.4395222851        7.2497447341
B             5.4361818058        9.0647052536       -0.0029044677
B             5.4380022254        9.0675089369        3.6228883958
B             5.4420429841        9.0652191971        7.2505876505
B             9.0766913082        1.8124340743        0.0097663914
B             9.0646722350        1.8265795141        3.6471524030
B             9.0590469075        1.8190857374        7.2575387291
B             9.0647052536        5.4361818058       -0.0029044677
B             9.0675089369        5.4380022254        3.6228883958
B             9.0652191971        5.4420429841        7.2505876505
B             9.0593158077        9.0593158077       -0.0078890613
B             9.0644890562        9.0644890562        3.5984826541
B             9.0734451718        9.0734451718        7.2440878713
N             0.9060125654        0.9060125654        6.3421863836
N             0.9108590200        0.9108590200        9.9696429021
N             0.9108589349        4.5343628782        2.7151440834
N             0.9083561611        4.5292186446        6.3399606403
N             0.9099702353        4.5338079903        9.9701975977
N             0.9060124550        8.1618228512        2.7199906118
N             0.9134251196        8.1306521005        6.3733570158
N             0.9083559706        8.1640487463        9.9747868926
N             4.5343628782        0.9108589349        2.7151440834
N             4.5292186446        0.9083561611        6.3399606403
N             4.5338079903        0.9099702353        9.9701975977
N             4.5338081452        4.5338081452        2.7160332326
N             4.5325111425        4.5325111425        6.3447864230
N             4.5344669232        4.5344669232        9.9695384235
N             4.5292186656        8.1640485515        2.7176473004
N             4.5399203430        8.1551903569        6.3488184323
N             4.5325113441        8.1592228949        9.9714945213
N             8.1618228512        0.9060124550        2.7199906118
N             8.1306521005        0.9134251196        6.3733570158
N             8.1640487463        0.9083559706        9.9747868926
N             8.1640485515        4.5292186656        2.7176473004
N             8.1551903569        4.5399203430        6.3488184323
N             8.1592228949        4.5325113441        9.9714945213
N             8.1306520158        8.1306520158        2.7125779834
N             8.1630690045        8.1630690045        6.3409401663
N             8.1551906476        8.1551906476        9.9640855103
N             0.9199356642        2.7276618703        0.8983412059
N             0.9036718862        2.7000025624        4.5004350573
N             0.9091050115        2.7223861761        8.1590747501
N             0.9091051219        6.3449344847        0.9036170011
N             0.9107987143        6.3432450571        4.5318157706
N             0.9096164818        6.3380086739        8.1660004424
N             0.9036719713       10.0035707230        0.9260005410
N             1.0653321282        9.8440861882        4.6599193998
N             0.9107985238        9.9721897666        8.1607643295
N             4.5367975215        2.7241187114        0.9018843069
N             4.5303848218        2.7207266810        4.5285603977
N             4.5314605876        2.7214676677        8.1570929301
N             4.5314605666        6.3469162617        0.9045357938
N             4.5390022282        6.3392919799        4.5313287756
N             4.5350676815        6.3448833876        8.1591254016
N             4.5303846669        9.9754453452        0.9052767869
N             4.5311081958        9.9733670167        4.5306383300
N             4.5390024298        9.9726768882        8.1647173380
N             8.1661281149        2.7170758800        0.9089271868
N             8.1310867469        2.7489120291        4.5338987100
N             8.1553936526        2.7258302743        8.1655901561
N             8.1553937373        6.3384188755        0.9001728287
N             8.1585071614        6.3438922544        4.5303229860
N             8.1590355324        6.3472603141        8.1567488567
N             8.1310869417        9.9701068482        0.8770912419
N             8.1582894593        9.9797741793        4.5242316861
N             8.1585074521        9.9736828673        8.1601168255
N             2.7276618703        0.9199356642        0.8983412059
N             2.7000025624        0.9036718862        4.5004350573
N             2.7223861761        0.9091050115        8.1590747501
N             2.7241187114        4.5367975215        0.9018843069
N             2.7207266810        4.5303848218        4.5285603977
N             2.7214676677        4.5314605876        8.1570929301
N             2.7170758800        8.1661281149        0.9089271868
N             2.7489120291        8.1310867469        4.5338987100
N             2.7258302743        8.1553936526        8.1655901561
N             6.3449344847        0.9091051219        0.9036170011
N             6.3432450571        0.9107987143        4.5318157706
N             6.3380086739        0.9096164818        8.1660004424
N             6.3469162617        4.5314605666        0.9045357938
N             6.3392919799        4.5390022282        4.5313287756
N             6.3448833876        4.5350676815        8.1591254016
N             6.3384188755        8.1553937373        0.9001728287
N             6.3438922544        8.1585071614        4.5303229860
N             6.3472603141        8.1590355324        8.1567488567
N            10.0035707230        0.9036719713        0.9260005410
N             9.8440861882        1.0653321282        4.6599193998
N             9.9721897666        0.9107985238        8.1607643295
N             9.9754453452        4.5303846669        0.9052767869
N             9.9733670167        4.5311081958        4.5306383300
N             9.9726768882        4.5390024298        8.1647173380
N             9.9701068482        8.1310869417        0.8770912419
N             9.9797741793        8.1582894593        4.5242316861
N             9.9736828673        8.1585074521        8.1601168255
N             2.7276620247        2.7276620247        2.7060675664
N             2.7170759806        2.7170759806        6.3378811565
N             2.7241187359        2.7241187359        9.9672083199
N             2.7223862767        6.3449345213        2.7168981559
N             2.7258305048        6.3384188636        6.3486153671
N             2.7214675426        6.3469160611        9.9725450982
N             2.7000025869       10.0035707841        2.7223311566
N             2.7489119040        9.9701069758        6.3729222443
N             2.7207262961        9.9754453520        9.9736209279
N             6.3449345213        2.7223862767        2.7168981559
N             6.3384188636        2.7258305048        6.3486153671
N             6.3469160611        2.7214675426        9.9725450982
N             6.3380086620        6.3380086620        2.7163868517
N             6.3472603361        6.3472603361        6.3449736604
N             6.3448836001        6.3448836001        9.9689378777
N             6.3432448565        9.9721898942        2.7152046221
N             6.3438924669        9.9736825732        6.3455018403
N             6.3392919213        9.9726767538        9.9650033012
N            10.0035707841        2.7000025869        2.7223311566
N             9.9701069758        2.7489119040        6.3729222443
N             9.9754453520        2.7207262961        9.9736209279
N             9.9721898942        6.3432448565        2.7152046221
N             9.9736825732        6.3438924669        6.3455018403
N             9.9726767538        6.3392919213        9.9650033012
N             9.8440861950        9.8440861950        2.5606709548
N             9.9797740449        9.9797740449        6.3457198000
N             9.9733672497        9.9733672497        9.9728973839
K_POINTS gamma
CELL_PARAMETERS angstrom
     10.8780060000       0.0000000000       0.0000000000
      0.0000000000      10.8780060000       0.0000000000
      0.0000000000       0.0000000000      10.8780060000
