&CONTROL
  calculation = 'scf'
  etot_conv_thr =   2.1600000000d-03
  forc_conv_thr =   1.0000000000d-04
  outdir = './out/'
  prefix = 'aiida'
  pseudo_dir = './pseudo/'
  tprnfor = .true.
  !tstress = .true.
  verbosity = 'high'
  disk_io   = 'high'
  max_seconds = 14400
/
&SYSTEM
  degauss =   1.4699723600d-02
  ecutwfc =   10.0000000000d+01
  ibrav = 0
  nat = 215
  nosym = .false.
  ntyp = 2
  occupations = 'smearing'
  smearing = 'mv'
  tot_charge = 1
  nspin = 2
  starting_magnetization(1) =  0.5
  starting_magnetization(2) = -0.5
  input_dft = 'pbe0'
  exx_fraction = 0.23
  ecutfock = 120
  ace = .true.
  localization_thr = 0.001
/
&ELECTRONS
  conv_thr =   4.3200000000d-08
  electron_maxstep = 80
  mixing_beta =   4.0000000000d-01
  adaptive_thr = .True.
  conv_thr_init = 1.D-3 
  conv_thr_multi = 1.D-2
/
&IONS
/
ATOMIC_SPECIES
B      10.811 B_ONCV_PBE-1.2.upf
N      14.0067 N_ONCV_PBE-1.2.upf
ATOMIC_POSITIONS (angstrom)
B             0.0576602962        0.0576602962        0.0576602962
B             0.0001806629        0.0001806629        3.6285559617
B            -0.0036887196       -0.0036887196        7.2491360136
B             0.0001806629        3.6285559617        0.0001806629
B             0.0015928066        3.6270004124        3.6270004124
B            -0.0004743443        3.6256661221        7.2529496392
B            -0.0036887196        7.2491360136       -0.0036887196
B            -0.0004743443        7.2529496392        3.6256661221
B             0.0089257199        7.2439515895        7.2439515895
B             3.6285559617        0.0001806629        0.0001806629
B             3.6270004124        0.0015928066        3.6270004124
B             3.6256661221       -0.0004743443        7.2529496392
B             3.6270004124        3.6270004124        0.0015928066
B             3.6268038088        3.6268038088        3.6268038088
B             3.6254725925        3.6254725925        7.2515878903
B             3.6256661221        7.2529496392       -0.0004743443
B             3.6254725925        7.2515878903        3.6254725925
B             3.6294318020        7.2496083108        7.2496083108
B             7.2491360136       -0.0036887196       -0.0036887196
B             7.2529496392       -0.0004743443        3.6256661221
B             7.2439515895        0.0089257199        7.2439515895
B             7.2529496392        3.6256661221       -0.0004743443
B             7.2515878903        3.6254725925        3.6254725925
B             7.2496083108        3.6294318020        7.2496083108
B             7.2439515895        7.2439515895        0.0089257199
B             7.2496083108        7.2496083108        3.6294318020
B             7.2535852080        7.2535852080        7.2535852080
B             0.0087614873        1.8209255640        1.8209255640
B            -0.0004537385        1.8120930685        5.4393605079
B            -0.0036695736        1.8156781515        9.0685176870
B            -0.0004537385        5.4393605079        1.8120930685
B             0.0015934090        5.4380253756        5.4380253756
B             0.0002072947        5.4364295591        9.0648097013
B            -0.0036695736        9.0685176870        1.8156781515
B             0.0002072947        9.0648097013        5.4364295591
B             0.0577370428        9.0072070352        9.0072070352
B             3.6293229295        1.8153756016        1.8153756016
B             3.6254647056        1.8135009436        5.4395824442
B             3.6256410565        1.8120542757        9.0655140939
B             3.6254647056        5.4395824442        1.8135009436
B             3.6268278309        5.4382450767        5.4382450767
B             3.6270020305        5.4380472180        9.0634839186
B             3.6256410565        9.0655140939        1.8120542757
B             3.6270020305        9.0634839186        5.4380472180
B             3.6285432112        9.0648212065        9.0648212065
B             7.2535480156        1.8114841685        1.8114841685
B             7.2496397450        1.8154337627        5.4356636778
B             7.2440142964        1.8209722267        9.0561602558
B             7.2496397450        5.4356636778        1.8154337627
B             7.2515727091        5.4395945703        5.4395945703
B             7.2529704445        5.4393852641        9.0655128336
B             7.2440142964        9.0561602558        1.8209722267
B             7.2529704445        9.0655128336        5.4393852641
B             7.2492592318        9.0686184117        9.0686184117
B             1.8209255640        0.0087614873        1.8209255640
B             1.8120930685       -0.0004537385        5.4393605079
B             1.8156781515       -0.0036695736        9.0685176870
B             1.8153756016        3.6293229295        1.8153756016
B             1.8135009436        3.6254647056        5.4395824442
B             1.8120542757        3.6256410565        9.0655140939
B             1.8114841685        7.2535480156        1.8114841685
B             1.8154337627        7.2496397450        5.4356636778
B             1.8209722267        7.2440142964        9.0561602558
B             5.4393605079       -0.0004537385        1.8120930685
B             5.4380253756        0.0015934090        5.4380253756
B             5.4364295591        0.0002072947        9.0648097013
B             5.4395824442        3.6254647056        1.8135009436
B             5.4382450767        3.6268278309        5.4382450767
B             5.4380472180        3.6270020305        9.0634839186
B             5.4356636778        7.2496397450        1.8154337627
B             5.4395945703        7.2515727091        5.4395945703
B             5.4393852641        7.2529704445        9.0655128336
B             9.0685176870       -0.0036695736        1.8156781515
B             9.0648097013        0.0002072947        5.4364295591
B             9.0072070352        0.0577370428        9.0072070352
B             9.0655140939        3.6256410565        1.8120542757
B             9.0634839186        3.6270020305        5.4380472180
B             9.0648212065        3.6285432112        9.0648212065
B             9.0561602558        7.2440142964        1.8209722267
B             9.0655128336        7.2529704445        5.4393852641
B             9.0686184117        7.2492592318        9.0686184117
B             1.8209255640        1.8209255640        0.0087614873
B             1.8153756016        1.8153756016        3.6293229295
B             1.8114841685        1.8114841685        7.2535480156
B             1.8120930685        5.4393605079       -0.0004537385
B             1.8135009436        5.4395824442        3.6254647056
B             1.8154337627        5.4356636778        7.2496397450
B             1.8156781515        9.0685176870       -0.0036695736
B             1.8120542757        9.0655140939        3.6256410565
B             1.8209722267        9.0561602558        7.2440142964
B             5.4393605079        1.8120930685       -0.0004537385
B             5.4395824442        1.8135009436        3.6254647056
B             5.4356636778        1.8154337627        7.2496397450
B             5.4380253756        5.4380253756        0.0015934090
B             5.4382450767        5.4382450767        3.6268278309
B             5.4395945703        5.4395945703        7.2515727091
B             5.4364295591        9.0648097013        0.0002072947
B             5.4380472180        9.0634839186        3.6270020305
B             5.4393852641        9.0655128336        7.2529704445
B             9.0685176870        1.8156781515       -0.0036695736
B             9.0655140939        1.8120542757        3.6256410565
B             9.0561602558        1.8209722267        7.2440142964
B             9.0648097013        5.4364295591        0.0002072947
B             9.0634839186        5.4380472180        3.6270020305
B             9.0655128336        5.4393852641        7.2529704445
B             9.0072070352        9.0072070352        0.0577370428
B             9.0648212065        9.0648212065        3.6285432112
B             9.0686184117        9.0686184117        7.2492592318
N             0.9067785034        0.9067785034        2.7188204228
N             0.9032570221        0.9032570221        6.3501271542
N             0.8932438478        0.8932438478        9.9718037078
N             0.9060141410        4.5337689226        2.7184499332
N             0.9060549930        4.5314748087        6.3463614902
N             0.9057568821        4.5326184107        9.9714087814
N             0.9031162867        8.1620189135        2.7146108738
N             0.9068688249        8.1583787497        6.3458889719
N             0.8931808816        8.1717611330        9.9706981304
N             4.5337689226        0.9060141410        2.7184499332
N             4.5314748087        0.9060549930        6.3463614902
N             4.5326184107        0.9057568821        9.9714087814
N             4.5326238498        4.5326238498        2.7188679580
N             4.5326451782        4.5326451782        6.3460001498
N             4.5326245355        4.5326245355        9.9714314685
N             4.5314468230        8.1592516749        2.7184508476
N             4.5338085180        8.1592397911        6.3464014427
N             4.5326134387        8.1594817134        9.9714184498
N             8.1620189135        0.9031162867        2.7146108738
N             8.1583787497        0.9068688249        6.3458889719
N             8.1717611330        0.8931808816        9.9706981304
N             8.1592516749        4.5314468230        2.7184508476
N             8.1592397911        4.5338085180        6.3464014427
N             8.1594817134        4.5326134387        9.9714184498
N             8.1583985959        8.1583985959        2.7188710426
N             8.1620574637        8.1620574637        6.3502665366
N             8.1717898338        8.1717898338        9.9721670412
N             0.9067785034        2.7188204228        0.9067785034
N             0.9060141410        2.7184499332        4.5337689226
N             0.9031162867        2.7146108738        8.1620189135
N             0.9032570221        6.3501271542        0.9032570221
N             0.9060549930        6.3463614902        4.5314748087
N             0.9068688249        6.3458889719        8.1583787497
N             0.8932438478        9.9718037078        0.8932438478
N             0.9057568821        9.9714087814        4.5326184107
N             0.8931808816        9.9706981304        8.1717611330
N             4.5337689226        2.7184499332        0.9060141410
N             4.5326238498        2.7188679580        4.5326238498
N             4.5314468230        2.7184508476        8.1592516749
N             4.5314748087        6.3463614902        0.9060549930
N             4.5326451782        6.3460001498        4.5326451782
N             4.5338085180        6.3464014427        8.1592397911
N             4.5326184107        9.9714087814        0.9057568821
N             4.5326245355        9.9714314685        4.5326245355
N             4.5326134387        9.9714184498        8.1594817134
N             8.1620189135        2.7146108738        0.9031162867
N             8.1592516749        2.7184508476        4.5314468230
N             8.1583985959        2.7188710426        8.1583985959
N             8.1583787497        6.3458889719        0.9068688249
N             8.1592397911        6.3464014427        4.5338085180
N             8.1620574637        6.3502665366        8.1620574637
N             8.1717611330        9.9706981304        0.8931808816
N             8.1594817134        9.9714184498        4.5326134387
N             8.1717898338        9.9721670412        8.1717898338
N             2.7188204228        0.9067785034        0.9067785034
N             2.7184499332        0.9060141410        4.5337689226
N             2.7146108738        0.9031162867        8.1620189135
N             2.7184499332        4.5337689226        0.9060141410
N             2.7188679580        4.5326238498        4.5326238498
N             2.7184508476        4.5314468230        8.1592516749
N             2.7146108738        8.1620189135        0.9031162867
N             2.7184508476        8.1592516749        4.5314468230
N             2.7188710426        8.1583985959        8.1583985959
N             6.3501271542        0.9032570221        0.9032570221
N             6.3463614902        0.9060549930        4.5314748087
N             6.3458889719        0.9068688249        8.1583787497
N             6.3463614902        4.5314748087        0.9060549930
N             6.3460001498        4.5326451782        4.5326451782
N             6.3464014427        4.5338085180        8.1592397911
N             6.3458889719        8.1583787497        0.9068688249
N             6.3464014427        8.1592397911        4.5338085180
N             6.3502665366        8.1620574637        8.1620574637
N             9.9718037078        0.8932438478        0.8932438478
N             9.9714087814        0.9057568821        4.5326184107
N             9.9706981304        0.8931808816        8.1717611330
N             9.9714087814        4.5326184107        0.9057568821
N             9.9714314685        4.5326245355        4.5326245355
N             9.9714184498        4.5326134387        8.1594817134
N             9.9706981304        8.1717611330        0.8931808816
N             9.9714184498        8.1594817134        4.5326134387
N             9.9721670412        8.1717898338        8.1717898338
N             2.7196005653        2.7196005653        2.7196005653
N             2.7176500443        2.7176500443        6.3472338377
N             2.7171067104        2.7171067104        9.9720213499
N             2.7176500443        6.3472338377        2.7176500443
N             2.7196639805        6.3451976726        6.3451976726
N             2.7171156045        6.3477167036        9.9708316613
N             2.7171067104        9.9720213499        2.7171067104
N             2.7171156045        9.9708316613        6.3477167036
N             2.7180109930        9.9713762547        9.9713762547
N             6.3472338377        2.7176500443        2.7176500443
N             6.3451976726        2.7196639805        6.3451976726
N             6.3477167036        2.7171156045        9.9708316613
N             6.3451976726        6.3451976726        2.7196639805
N             6.3471820156        6.3471820156        6.3471820156
N             6.3476545318        6.3476545318        9.9719802871
N             6.3477167036        9.9708316613        2.7171156045
N             6.3476545318        9.9719802871        6.3476545318
N             6.3466659647        9.9713715446        9.9713715446
N             9.9720213499        2.7171067104        2.7171067104
N             9.9708316613        2.7171156045        6.3477167036
N             9.9713762547        2.7180109930        9.9713762547
N             9.9708316613        6.3477167036        2.7171156045
N             9.9719802871        6.3476545318        6.3476545318
N             9.9713715446        6.3466659647        9.9713715446
N             9.9713762547        9.9713762547        2.7180109930
N             9.9713715446        9.9713715446        6.3466659647
K_POINTS gamma
CELL_PARAMETERS angstrom
     10.8780060000       0.0000000000       0.0000000000
      0.0000000000      10.8780060000       0.0000000000
      0.0000000000       0.0000000000      10.8780060000
