&CONTROL
  calculation = 'scf'
  etot_conv_thr =   2.1600000000d-03
  forc_conv_thr =   1.0000000000d-04
  outdir = './out/'
  prefix = 'aiida'
  pseudo_dir = './pseudo/'
  tprnfor = .true.
  !tstress = .true.
  verbosity = 'high'
  disk_io   = 'high'
  max_seconds = 14400
/
&SYSTEM
  degauss =   1.4699723600d-02
  ecutwfc =   10.0000000000d+01
  ibrav = 0
  nat = 214
  nosym = .false.
  ntyp = 2
  occupations = 'smearing'
  smearing = 'mv'
  tot_charge = 1
  nspin = 2
  starting_magnetization(1) =  0.5
  starting_magnetization(2) = -0.5
  input_dft = 'pbe0'
  exx_fraction = 0.23
  ecutfock = 120
  ace = .true.
  localization_thr = 0.001
/
&ELECTRONS
  conv_thr =   4.3200000000d-08
  electron_maxstep = 80
  mixing_beta =   4.0000000000d-01
  adaptive_thr = .True.
  conv_thr_init = 1.D-3 
  conv_thr_multi = 1.D-2
/
&IONS
/
ATOMIC_SPECIES
B      10.811 B_ONCV_PBE-1.2.upf
N      14.0067 N_ONCV_PBE-1.2.upf
ATOMIC_POSITIONS (angstrom)
B             0.0071109870        0.0071109870       -0.0098974127
B            -0.0042790683       -0.0042790683        7.2430260425
B            -0.0311161566        3.6574138492       -0.0314106819
B             0.0071110445        3.6359005698        3.6188921701
B            -0.0068572083        3.6264792526        7.2544095810
B            -0.0068571508        7.2495960946       -0.0004760955
B            -0.0042791258        7.2609796331        3.6302822254
B             0.0030125030        7.2533683762        7.2506373096
B             3.6574138492       -0.0311161566       -0.0314106819
B             3.6359005698        0.0071110445        3.6188921701
B             3.6264792526       -0.0068572083        7.2544095810
B             3.6195650186        3.6195650186        0.0064381960
B             3.6574138802        3.6574138802        3.6571193549
B             3.6307441731        3.6307441731        7.2651271042
B             3.6307441220        7.2388785305       -0.0047410224
B             3.6264793037        7.2495960537        3.6328603590
B             3.6303391073        7.2507856522        7.2532199512
B             7.2495960946       -0.0068571508       -0.0004760955
B             7.2609796331       -0.0042791258        3.6302822254
B             7.2533683762        0.0030125030        7.2506373096
B             7.2388785305        3.6307441220       -0.0047410224
B             7.2495960537        3.6264793037        3.6328603590
B             7.2507856522        3.6303391073        7.2532199512
B             7.2507856934        7.2507856934       -0.0043358515
B             7.2533683350        7.2533683350        3.6229907528
B             7.2565877184        7.2565877184        7.2474178652
B            -0.2103682182        2.0017665750        1.6242330540
B            -0.0246516833        1.7778303944        5.4327762037
B            -0.0060916374        1.8122414666        9.0525878790
B            -0.0060915692        5.4514213065        1.8137581542
B            -0.0001696761        5.4431555151        5.4376523818
B            -0.0068524424        5.4435051609        9.0605040328
B            -0.0246517515        9.0712329818        1.8481692264
B             0.0164854515        9.0872135290        5.4167956647
B            -0.0001696079        9.0663568037        9.0608536704
B             3.6381512970        1.7982823849        1.8277172105
B             3.6545870112        1.8309540157        5.4734373522
B             3.6208121414        1.8083704032        9.0653795457
B             3.6208120912        5.4386297389        1.8176291508
B             3.6353037956        5.4500949750        5.4510849926
B             3.6260236061        5.4354678835        9.0685412779
B             3.6545870614        9.0305719324        1.7950455383
B             3.6234182202        9.0621989969        5.4418101645
B             3.6353038581        9.0529242097        9.0539142273
B             7.2523161262        1.8038610536        1.8221384782
B             7.2542563203        1.8149237917        5.4450938580
B             7.2449546488        1.8158379058        9.0621707176
B             7.2449547108        5.4418384342        1.8101616800
B             7.2562586495        5.4445349340        5.4402818842
B             7.2486391268        5.4427169006        9.0612923618
B             7.2542562583        9.0589152938        1.8110757941
B             7.2628552307        9.0722624415        5.4317468209
B             7.2562585988        9.0637273499        9.0594743001
B             2.0017665750       -0.2103682182        1.6242330540
B             1.7778303944       -0.0246516833        5.4327762037
B             1.8122414666       -0.0060916374        9.0525878790
B             1.7982823849        3.6381512970        1.8277172105
B             1.8309540157        3.6545870112        5.4734373522
B             1.8083704032        3.6208121414        9.0653795457
B             1.8038610536        7.2523161262        1.8221384782
B             1.8149237917        7.2542563203        5.4450938580
B             1.8158379058        7.2449546488        9.0621707176
B             5.4514213065       -0.0060915692        1.8137581542
B             5.4431555151       -0.0001696761        5.4376523818
B             5.4435051609       -0.0068524424        9.0605040328
B             5.4386297389        3.6208120912        1.8176291508
B             5.4500949750        3.6353037956        5.4510849926
B             5.4354678835        3.6260236061        9.0685412779
B             5.4418384342        7.2449547108        1.8101616800
B             5.4445349340        7.2562586495        5.4402818842
B             5.4427169006        7.2486391268        9.0612923618
B             9.0712329818       -0.0246517515        1.8481692264
B             9.0872135290        0.0164854515        5.4167956647
B             9.0663568037       -0.0001696079        9.0608536704
B             9.0305719324        3.6545870614        1.7950455383
B             9.0621989969        3.6234182202        5.4418101645
B             9.0529242097        3.6353038581        9.0539142273
B             9.0589152938        7.2542562583        1.8110757941
B             9.0722624415        7.2628552307        5.4317468209
B             9.0637273499        7.2562585988        9.0594743001
B             1.7982824017        1.7982824017       -0.0121480025
B             2.0017665582        2.0017665582        3.8363715127
B             1.8038610536        1.8038610536        7.2516894448
B             1.8083704436        5.4386296884        0.0051910731
B             1.8122414402        5.4514213570        3.6320947335
B             1.8158378962        5.4418384342        7.2590509606
B             1.8309540421        9.0305718838       -0.0285839151
B             1.7778303540        9.0712330304        3.6506548978
B             1.8149238013        9.0589152938        7.2497492891
B             5.4386296884        1.8083704436        0.0051910731
B             5.4514213570        1.8122414402        3.6320947335
B             5.4418384342        1.8158378962        7.2590509606
B             5.4354679340        5.4354679340       -0.0000204418
B             5.4435051609        5.4435051609        3.6328556062
B             5.4427168501        5.4427168501        7.2553665451
B             5.4500949750        9.0529242011       -0.0093006318
B             5.4431554646        9.0663568301        3.6261728404
B             5.4445349845        9.0637273277        7.2477470224
B             9.0305718838        1.8309540421       -0.0285839151
B             9.0712330304        1.7778303540        3.6506548978
B             9.0589152938        1.8149238013        7.2497492891
B             9.0529242011        5.4500949750       -0.0093006318
B             9.0663568301        5.4431554646        3.6261728404
B             9.0637273277        5.4445349845        7.2477470224
B             9.0621989705        9.0621989705        0.0025850123
B             9.0872135376        9.0872135376        3.6095177748
B             9.0722624637        9.0722624637        7.2411503905
N             0.9037618115        0.9037618115        6.3454678985
N             0.9053562091        0.9053562091        9.9694873061
N             0.9053561240        4.5345184742        2.7206468943
N             0.9080208054        4.5327070226        6.3483568972
N             0.9026465255        4.5287625083        9.9752430797
N             0.9037617011        8.1585413363        2.7222413657
N             0.9125701618        8.1451864776        6.3588226387
N             0.9080206149        8.1556524894        9.9712985146
N             4.5345184742        0.9053561240        2.7206468943
N             4.5327070226        0.9080208054        6.3483568972
N             4.5287625083        0.9026465255        9.9752430797
N             4.5287626632        4.5287626632        2.7233569424
N             4.5343338325        4.5343338325        6.3519081737
N             4.5259763027        4.5259763027        9.9780290440
N             4.5327070436        8.1556522946        2.7179826561
N             4.5363085933        8.1579967254        6.3460120638
N             4.5343340341        8.1521011442        9.9696718313
N             8.1585413363        0.9037617011        2.7222413657
N             8.1451864776        0.9125701618        6.3588226387
N             8.1556524894        0.9080206149        9.9712985146
N             8.1556522946        4.5327070436        2.7179826561
N             8.1579967254        4.5363085933        6.3460120638
N             8.1521011442        4.5343340341        9.9696718313
N             8.1451863929        8.1451863929        2.7134329412
N             8.1625078431        8.1625078431        6.3415013277
N             8.1579970161        8.1579970161        9.9676972600
N             0.8970742883        2.6986001492        0.9274029270
N             0.9106118528        2.7061812624        4.5187886818
N             0.9045313821        2.7181244452        8.1603541816
N             0.9045314925        6.3436550532        0.9078787320
N             0.9083555608        6.3445389887        4.5342245671
N             0.9074696979        6.3404137189        8.1635953974
N             0.9106119379        9.9852170985        0.9198218410
N             0.9828370017        9.9064866306        4.5975189574
N             0.9083553703        9.9697809701        8.1594703979
N             4.5202664615        2.7092484878        0.9167545305
N             4.5380724426        2.7245221052        4.5409701470
N             4.5284812075        2.7179194230        8.1663007079
N             4.5284811865        6.3377084839        0.9080840385
N             4.5369920970        6.3446191800        4.5347899322
N             4.5332405637        6.3423640533        8.1616447359
N             4.5380722877        9.9630355959        0.9014813627
N             4.5248683235        9.9770139053        4.5269914414
N             4.5369922986        9.9692157316        8.1593901379
N             8.1507572361        2.7226365601        0.9033665067
N             8.1464139591        2.7327876367        4.5328182618
N             8.1525539064        2.7236867939        8.1617148300
N             8.1525539911        6.3422942016        0.9023163091
N             8.1611329872        6.3451391164        4.5303452095
N             8.1584573761        6.3476235205        8.1563856503
N             8.1464141539        9.9711872964        0.8932156343
N             8.1630802945        9.9769280518        4.5270778136
N             8.1611332779        9.9736606438        8.1588699635
N             2.6986001492        0.8970742883        0.9274029270
N             2.7061812624        0.9106118528        4.5187886818
N             2.7181244452        0.9045313821        8.1603541816
N             2.7092484878        4.5202664615        0.9167545305
N             2.7245221052        4.5380724426        4.5409701470
N             2.7179194230        4.5284812075        8.1663007079
N             2.7226365601        8.1507572361        0.9033665067
N             2.7327876367        8.1464139591        4.5328182618
N             2.7236867939        8.1525539064        8.1617148300
N             6.3436550532        0.9045314925        0.9078787320
N             6.3445389887        0.9083555608        4.5342245671
N             6.3404137189        0.9074696979        8.1635953974
N             6.3377084839        4.5284811865        0.9080840385
N             6.3446191800        4.5369920970        4.5347899322
N             6.3423640533        4.5332405637        8.1616447359
N             6.3422942016        8.1525539911        0.9023163091
N             6.3451391164        8.1611329872        4.5303452095
N             6.3476235205        8.1584573761        8.1563856503
N             9.9852170985        0.9106119379        0.9198218410
N             9.9064866306        0.9828370017        4.5975189574
N             9.9697809701        0.9083553703        8.1594703979
N             9.9630355959        4.5380722877        0.9014813627
N             9.9770139053        4.5248683235        4.5269914414
N             9.9692157316        4.5369922986        8.1593901379
N             9.9711872964        8.1464141539        0.8932156343
N             9.9769280518        8.1630802945        4.5270778136
N             9.9736606438        8.1611332779        8.1588699635
N             2.6986003036        2.6986003036        2.7289289423
N             2.7226366607        2.7226366607        6.3532520353
N             2.7092485123        2.7092485123        9.9837393799
N             2.7181245458        6.3436550898        2.7214717853
N             2.7236870244        6.3422941897        6.3514551133
N             2.7179192979        6.3377082833        9.9755244783
N             2.7061812869        9.9852171596        2.7153911900
N             2.7327875116        9.9711874240        6.3575950321
N             2.7245217203        9.9630356027        9.9659333071
N             6.3436550898        2.7181245458        2.7214717853
N             6.3422941897        2.7236870244        6.3514551133
N             6.3377082833        2.7179192979        9.9755244783
N             6.3404137070        6.3404137070        2.7185336356
N             6.3476235425        6.3476235425        6.3455518167
N             6.3423642658        6.3423642658        9.9707649955
N             6.3445387881        9.9697810977        2.7176477756
N             6.3451393289        9.9736603497        6.3428760145
N             6.3446191214        9.9692155972        9.9670134324
N             9.9852171596        2.7061812869        2.7153911900
N             9.9711874240        2.7327875116        6.3575950321
N             9.9630356027        2.7245217203        9.9659333071
N             9.9697810977        6.3445387881        2.7176477756
N             9.9736603497        6.3451393289        6.3428760145
N             9.9692155972        6.3446191214        9.9670134324
N             9.9064866374        9.9064866374        2.6431660813
N             9.9769279174        9.9769279174        6.3409289648
N             9.9770141383        9.9770141383        9.9791372562
K_POINTS gamma
CELL_PARAMETERS angstrom
     10.8780060000       0.0000000000       0.0000000000
      0.0000000000      10.8780060000       0.0000000000
      0.0000000000       0.0000000000      10.8780060000
