&CONTROL
  calculation = 'scf'
  etot_conv_thr =   2.1600000000d-03
  forc_conv_thr =   1.0000000000d-04
  outdir = './out/'
  prefix = 'aiida'
  pseudo_dir = './pseudo/'
  tprnfor = .true.
  !tstress = .true.
  verbosity = 'high'
  disk_io   = 'high'
  max_seconds = 14400
/
&SYSTEM
  degauss =   1.4699723600d-02
  ecutwfc =   10.0000000000d+01
  ibrav = 0
  nat = 214
  nosym = .false.
  ntyp = 2
  occupations = 'smearing'
  smearing = 'mv'
  tot_charge = -2
  nspin = 2
  starting_magnetization(1) =  0.5
  starting_magnetization(2) = -0.5
  input_dft = 'pbe0'
  exx_fraction = 0.23
  ecutfock = 120
  ace = .true.
  localization_thr = 0.001
/
&ELECTRONS
  conv_thr =   4.3200000000d-08
  electron_maxstep = 80
  mixing_beta =   4.0000000000d-01
  adaptive_thr = .True.
  conv_thr_init = 1.D-3 
  conv_thr_multi = 1.D-2
/
&IONS
/
ATOMIC_SPECIES
B      10.811 B_ONCV_PBE-1.2.upf
N      14.0067 N_ONCV_PBE-1.2.upf
ATOMIC_POSITIONS (angstrom)
B             0.0029098513        0.0029098513        0.0142965636
B            -0.0007361273       -0.0007361273        7.2341531389
B             0.0002433988        3.6256011204        0.0004020469
B             0.0029099088        3.6117065935        3.6230933058
B            -0.0085158872        3.6244175521        7.2497573025
B            -0.0085158297        7.2542483731        0.0015856050
B            -0.0007361848        7.2698525367        3.6267392844
B             0.0088007895        7.2534689752        7.2505367106
B             3.6256011204        0.0002433988        0.0004020469
B             3.6117065935        0.0029099088        3.6230933058
B             3.6244175521       -0.0085158872        7.2497573025
B             3.6259020427        3.6259020427        0.0001011719
B             3.6256011514        3.6256011514        3.6257597995
B             3.6211237715        3.6211237715        7.2478436313
B             3.6211237204        7.2561620034        0.0048793792
B             3.6244176032        7.2542483322        3.6345190379
B             3.6274711857        7.2514779728        7.2525276306
B             7.2542483731       -0.0085158297        0.0015856050
B             7.2698525367       -0.0007361848        3.6267392844
B             7.2534689752        0.0088007895        7.2505367106
B             7.2561620034        3.6211237204        0.0048793792
B             7.2542483322        3.6244176032        3.6345190379
B             7.2514779728        3.6274711857        7.2525276306
B             7.2514780140        7.2514780140       -0.0014679299
B             7.2534689340        7.2534689340        3.6172024663
B             7.2578828077        7.2578828077        7.2461227759
B             0.0296252132        1.8181351433        1.8078644857
B            -0.0366402497        1.7707212433        5.4026874740
B            -0.0002875990        1.8099577300        9.0614105819
B            -0.0002875308        5.4425986036        1.8160418908
B             0.0011717530        5.4388366039        5.4343145881
B            -0.0015513839        5.4382926125        9.0657165812
B            -0.0366403179        9.1013217115        1.8552783775
B             0.0322854499        9.1031653531        5.4008438406
B             0.0011718212        9.0696945974        9.0651725816
B             3.6290120273        1.8148928694        1.8111067260
B             3.6115071546        1.8063171837        5.4264567223
B             3.6223928974        1.8100168797        9.0620445813
B             3.6223928472        5.4419647033        1.8159826743
B             3.6256213652        5.4376544130        5.4392302835
B             3.6245048805        5.4385173041        9.0654918573
B             3.6115072048        9.0775525623        1.8196823703
B             3.6213180045        9.0627939744        5.4412151870
B             3.6256214277        9.0647789188        9.0663547893
B             7.2668022528        1.7990379323        1.8269615995
B             7.2572588735        1.8162700386        5.4419655159
B             7.2543981510        1.8127426044        9.0686359661
B             7.2543982130        5.4353731857        1.8132569814
B             7.2547832337        5.4423069809        5.4374764475
B             7.2528028917        5.4396804807        9.0643287817
B             7.2572588115        9.0620436359        1.8097295472
B             7.2666438192        9.0779346931        5.4260745693
B             7.2547831830        9.0665327866        9.0617022532
B             1.8181351433        0.0296252132        1.8078644857
B             1.7707212433       -0.0366402497        5.4026874740
B             1.8099577300       -0.0002875990        9.0614105819
B             1.8148928694        3.6290120273        1.8111067260
B             1.8063171837        3.6115071546        5.4264567223
B             1.8100168797        3.6223928974        9.0620445813
B             1.7990379323        7.2668022528        1.8269615995
B             1.8162700386        7.2572588735        5.4419655159
B             1.8127426044        7.2543981510        9.0686359661
B             5.4425986036       -0.0002875308        1.8160418908
B             5.4388366039        0.0011717530        5.4343145881
B             5.4382926125       -0.0015513839        9.0657165812
B             5.4419647033        3.6223928472        1.8159826743
B             5.4376544130        3.6256213652        5.4392302835
B             5.4385173041        3.6245048805        9.0654918573
B             5.4353731857        7.2543982130        1.8132569814
B             5.4423069809        7.2547832337        5.4374764475
B             5.4396804807        7.2528028917        9.0643287817
B             9.1013217115       -0.0366403179        1.8552783775
B             9.1031653531        0.0322854499        5.4008438406
B             9.0696945974        0.0011718212        9.0651725816
B             9.0775525623        3.6115072048        1.8196823703
B             9.0627939744        3.6213180045        5.4412151870
B             9.0647789188        3.6256214277        9.0663547893
B             9.0620436359        7.2572588115        1.8097295472
B             9.0779346931        7.2666438192        5.4260745693
B             9.0665327866        7.2547831830        9.0617022532
B             1.8148928862        1.8148928862       -0.0030087328
B             1.8181351265        1.8181351265        3.5963780813
B             1.7990379323        1.7990379323        7.2372033182
B             1.8100169201        5.4419646528        0.0036103171
B             1.8099577036        5.4425986541        3.6262906951
B             1.8127425948        5.4353731857        7.2496074584
B             1.8063172101        9.0775525137        0.0144959415
B             1.7707212029        9.1013217601        3.6626434642
B             1.8162700482        9.0620436359        7.2467467359
B             5.4419646528        1.8100169201        0.0036103171
B             5.4425986541        1.8099577036        3.6262906951
B             5.4353731857        1.8127425948        7.2496074584
B             5.4385173546        5.4385173546        0.0014982838
B             5.4382926125        5.4382926125        3.6275545477
B             5.4396804302        5.4396804302        7.2512027802
B             5.4376544130        9.0647789102        0.0003817986
B             5.4388365534        9.0696946238        3.6248314113
B             5.4423070314        9.0665327644        7.2492224382
B             9.0775525137        1.8063172101        0.0144959415
B             9.1013217601        1.7707212029        3.6626434642
B             9.0620436359        1.8162700482        7.2467467359
B             9.0647789102        5.4376544130        0.0003817986
B             9.0696946238        5.4388365534        3.6248314113
B             9.0665327644        5.4423070314        7.2492224382
B             9.0627939480        9.0627939480        0.0046852280
B             9.1031653617        9.1031653617        3.5937177764
B             9.0779347153        9.0779347153        7.2373618020
N             0.9011193941        0.9011193941        6.3417741157
N             0.9097156365        0.9097156365        9.9701000681
N             0.9097155514        4.5339057122        2.7162874669
N             0.9064843154        4.5274200624        6.3408847184
N             0.9076751837        4.5311151184        9.9728904696
N             0.9011192837        8.1622351191        2.7248837831
N             0.9147115378        8.1373740883        6.3666350280
N             0.9064841249        8.1631246682        9.9765854748
N             4.5339057122        0.9097155514        2.7162874669
N             4.5274200624        0.9064843154        6.3408847184
N             4.5311151184        0.9076751837        9.9728904696
N             4.5311152733        4.5311152733        2.7183282842
N             4.5308780020        4.5308780020        6.3463065045
N             4.5321969960        4.5321969960        9.9718083507
N             4.5274200834        8.1631244734        2.7195191461
N             4.5390853296        8.1547666107        6.3492421785
N             4.5308782036        8.1577028134        9.9731276618
N             8.1622351191        0.9011192837        2.7248837831
N             8.1373740883        0.9147115378        6.3666350280
N             8.1631246682        0.9064841249        9.9765854748
N             8.1631244734        4.5274200834        2.7195191461
N             8.1547666107        4.5390853296        6.3492421785
N             8.1577028134        4.5308782036        9.9731276618
N             8.1373740036        8.1373740036        2.7112915652
N             8.1626982309        8.1626982309        6.3413109399
N             8.1547669014        8.1547669014        9.9649205237
N             0.9161012961        2.7194548372        0.9065482390
N             0.9040938958        2.6993040714        4.5020316988
N             0.9058210339        2.7192441233        8.1580620343
N             0.9058211443        6.3459472005        0.9067590539
N             0.9092806151        6.3436468369        4.5334014608
N             0.9083313453        6.3385148352        8.1654942811
N             0.9040939809       10.0019740815        0.9266990320
N             0.9806459837        9.9029689920        4.6010365960
N             0.9092804246        9.9706040764        8.1603625497
N             4.5339940944        2.7209519283        0.9050510900
N             4.5291241807        2.7189766087        4.5302055327
N             4.5292095445        2.7190513245        8.1587462303
N             4.5292095235        6.3452629615        0.9069521370
N             4.5369222226        6.3399374805        4.5329153596
N             4.5336459046        6.3432670982        8.1607416910
N             4.5291240258        9.9738002102        0.9070268592
N             4.5293759074        9.9737599373        4.5302454094
N             4.5369224242        9.9710903042        8.1640718374
N             8.1657243455        2.7142386008        0.9117644660
N             8.1395685622        2.7419002436        4.5359968460
N             8.1543660997        2.7245840801        8.1661672736
N             8.1543661844        6.3378417580        0.9014190229
N             8.1592715785        6.3444742370        4.5303820797
N             8.1583733556        6.3466646967        8.1573444741
N             8.1395687570        9.9680087122        0.8841030274
N             8.1608755559        9.9775327330        4.5264731324
N             8.1592718692        9.9736237736        8.1595348429
N             2.7194548372        0.9161012961        0.9065482390
N             2.6993040714        0.9040938958        4.5020316988
N             2.7192441233        0.9058210339        8.1580620343
N             2.7209519283        4.5339940944        0.9050510900
N             2.7189766087        4.5291241807        4.5302055327
N             2.7190513245        4.5292095445        8.1587462303
N             2.7142386008        8.1657243455        0.9117644660
N             2.7419002436        8.1395685622        4.5359968460
N             2.7245840801        8.1543660997        8.1661672736
N             6.3459472005        0.9058211443        0.9067590539
N             6.3436468369        0.9092806151        4.5334014608
N             6.3385148352        0.9083313453        8.1654942811
N             6.3452629615        4.5292095235        0.9069521370
N             6.3399374805        4.5369222226        4.5329153596
N             6.3432670982        4.5336459046        8.1607416910
N             6.3378417580        8.1543661844        0.9014190229
N             6.3444742370        8.1592715785        4.5303820797
N             6.3466646967        8.1583733556        8.1573444741
N            10.0019740815        0.9040939809        0.9266990320
N             9.9029689920        0.9806459837        4.6010365960
N             9.9706040764        0.9092804246        8.1603625497
N             9.9738002102        4.5291240258        0.9070268592
N             9.9737599373        4.5293759074        4.5302454094
N             9.9710903042        4.5369224242        8.1640718374
N             9.9680087122        8.1395687570        0.8841030274
N             9.9775327330        8.1608755559        4.5264731324
N             9.9736237736        8.1592718692        8.1595348429
N             2.7194549916        2.7194549916        2.7099019345
N             2.7142387014        2.7142387014        6.3382849259
N             2.7209519528        2.7209519528        9.9700117470
N             2.7192442239        6.3459472371        2.7201821335
N             2.7245843106        6.3378417461        6.3496429200
N             2.7190511994        6.3452627609        9.9747961413
N             2.6993040959       10.0019741426        2.7219091470
N             2.7419001185        9.9680088398        6.3644404290
N             2.7189762238        9.9738002170        9.9748815690
N             6.3459472371        2.7192442239        2.7201821335
N             6.3378417461        2.7245843106        6.3496429200
N             6.3452627609        2.7190511994        9.9747961413
N             6.3385148233        6.3385148233        2.7176719882
N             6.3466647187        6.3466647187        6.3456358372
N             6.3432673107        6.3432673107        9.9703596546
N             6.3436466363        9.9706042040        2.7167227213
N             6.3444744495        9.9736234795        6.3447374232
N             6.3399374219        9.9710901698        9.9670833068
N            10.0019741426        2.6993040959        2.7219091470
N             9.9680088398        2.7419001185        6.3644404290
N             9.9738002170        2.7189762238        9.9748815690
N             9.9706042040        6.3436466363        2.7167227213
N             9.9736234795        6.3444744495        6.3447374232
N             9.9710901698        6.3399374219        9.9670833068
N             9.9029689988        9.9029689988        2.6453570993
N             9.9775325986        9.9775325986        6.3431337034
N             9.9737601703        9.9737601703        9.9746296723
K_POINTS gamma
CELL_PARAMETERS angstrom
     10.8780060000       0.0000000000       0.0000000000
      0.0000000000      10.8780060000       0.0000000000
      0.0000000000       0.0000000000      10.8780060000
