&CONTROL
  calculation = 'scf'
  etot_conv_thr =   2.1600000000d-03
  forc_conv_thr =   1.0000000000d-04
  outdir = './out/'
  prefix = 'aiida'
  pseudo_dir = './pseudo/'
  tprnfor = .true.
  !tstress = .true.
  verbosity = 'high'
  disk_io   = 'high'
  max_seconds = 14400
  wf_collect=.TRUE.
/
&SYSTEM
  degauss =   1.4699723600d-02
  ecutwfc =   10.0000000000d+01
  ibrav = 0
  nat = 216
  nosym = .false.
  ntyp = 2
  occupations = 'smearing'
  smearing = 'mv'
  tot_charge = -2
  nspin = 2
  starting_magnetization(1) =  0.5
  starting_magnetization(2) = -0.5
  input_dft = 'pbe0'
  exx_fraction = 0.23
  ecutfock = 120
  ace = .true.
  localization_thr = 0.001
/
&ELECTRONS
  conv_thr =   4.3200000000d-08
  electron_maxstep = 80
  mixing_beta =   4.0000000000d-01
  adaptive_thr = .True.
  conv_thr_init = 1.D-3 
  conv_thr_multi = 1.D-2
/
&IONS
/
ATOMIC_SPECIES
B      10.811 B_ONCV_PBE-1.2.upf
N      14.0067 N_ONCV_PBE-1.2.upf

ATOMIC_POSITIONS (angstrom)
B             0.0432648295        0.0432648295        0.0432648295
B            -0.0013464244       -0.0013464244        3.6258190954
B             0.0012714304        0.0012714304        7.2588241507
B            -0.0013464244        3.6258190954       -0.0013464244
B             0.0009019181        3.6277982744        3.6277982744
B             0.0010530531        3.6282836576        7.2490146740
B             0.0012714304        7.2588241507        0.0012714304
B             0.0010530531        7.2490146740        3.6282836576
B            -0.0027903075        7.2479006499        7.2479006499
B             3.6258190954       -0.0013464244       -0.0013464244
B             3.6277982744        0.0009019181        3.6277982744
B             3.6282836576        0.0010530531        7.2490146740
B             3.6277982744        3.6277982744        0.0009019181
B             3.6271081446        3.6271081446        3.6271081446
B             3.6266446362        3.6266446362        7.2509670668
B             3.6282836576        7.2490146740        0.0010530531
B             3.6266446362        7.2509670668        3.6266446362
B             3.6272819730        7.2512688872        7.2512688872
B             7.2588241507        0.0012714304        0.0012714304
B             7.2490146740        0.0010530531        3.6282836576
B             7.2479006499       -0.0027903075        7.2479006499
B             7.2490146740        3.6282836576        0.0010530531
B             7.2509670668        3.6266446362        3.6266446362
B             7.2512688872        3.6272819730        7.2512688872
B             7.2479006499        7.2479006499       -0.0027903075
B             7.2512688872        7.2512688872        3.6272819730
B             7.2512396812        7.2512396812        7.2512396812
B            -0.0023045520        1.8192434906        1.8192434906
B             0.0015336006        1.8154124276        5.4379279696
B            -0.0057272169        1.8116228683        9.0560288722
B             0.0015336006        5.4379279696        1.8154124276
B             0.0002666497        5.4371313774        5.4371313774
B            -0.0000493521        5.4420666203        9.0647235977
B            -0.0057272169        9.0560288722        1.8116228683
B            -0.0000493521        9.0647235977        5.4420666203
B             0.0584263463        9.0482373024        9.0482373024
B             3.6271456380        1.8146594244        1.8146594244
B             3.6268695349        1.8146667903        5.4387166585
B             3.6277164508        1.8140513373        9.0629065104
B             3.6268695349        5.4387166585        1.8146667903
B             3.6266739663        5.4390503789        5.4390503789
B             3.6291085560        5.4360876179        9.0655397463
B             3.6277164508        9.0629065104        1.8140513373
B             3.6291085560        9.0655397463        5.4360876179
B             3.6261629238        9.0633278419        9.0633278419
B             7.2502671335        1.8141112740        1.8141112740
B             7.2514148089        1.8137506543        5.4389168662
B             7.2418584003        1.8240592770        9.0701382003
B             7.2514148089        5.4389168662        1.8137506543
B             7.2509687324        5.4387593226        5.4387593226
B             7.2501063372        5.4387632514        9.0634353140
B             7.2418584003        9.0701382003        1.8240592770
B             7.2501063372        9.0634353140        5.4387632514
B             7.2611818422        9.0658907713        9.0658907713
B             1.8192434906       -0.0023045520        1.8192434906
B             1.8154124276        0.0015336006        5.4379279696
B             1.8116228683       -0.0057272169        9.0560288722
B             1.8146594244        3.6271456380        1.8146594244
B             1.8146667903        3.6268695349        5.4387166585
B             1.8140513373        3.6277164508        9.0629065104
B             1.8141112740        7.2502671335        1.8141112740
B             1.8137506543        7.2514148089        5.4389168662
B             1.8240592770        7.2418584003        9.0701382003
B             5.4379279696        0.0015336006        1.8154124276
B             5.4371313774        0.0002666497        5.4371313774
B             5.4420666203       -0.0000493521        9.0647235977
B             5.4387166585        3.6268695349        1.8146667903
B             5.4390503789        3.6266739663        5.4390503789
B             5.4360876179        3.6291085560        9.0655397463
B             5.4389168662        7.2514148089        1.8137506543
B             5.4387593226        7.2509687324        5.4387593226
B             5.4387632514        7.2501063372        9.0634353140
B             9.0560288722       -0.0057272169        1.8116228683
B             9.0647235977       -0.0000493521        5.4420666203
B             9.0482373024        0.0584263463        9.0482373024
B             9.0629065104        3.6277164508        1.8140513373
B             9.0655397463        3.6291085560        5.4360876179
B             9.0633278419        3.6261629238        9.0633278419
B             9.0701382003        7.2418584003        1.8240592770
B             9.0634353140        7.2501063372        5.4387632514
B             9.0658907713        7.2611818422        9.0658907713
B             1.8192434906        1.8192434906       -0.0023045520
B             1.8146594244        1.8146594244        3.6271456380
B             1.8141112740        1.8141112740        7.2502671335
B             1.8154124276        5.4379279696        0.0015336006
B             1.8146667903        5.4387166585        3.6268695349
B             1.8137506543        5.4389168662        7.2514148089
B             1.8116228683        9.0560288722       -0.0057272169
B             1.8140513373        9.0629065104        3.6277164508
B             1.8240592770        9.0701382003        7.2418584003
B             5.4379279696        1.8154124276        0.0015336006
B             5.4387166585        1.8146667903        3.6268695349
B             5.4389168662        1.8137506543        7.2514148089
B             5.4371313774        5.4371313774        0.0002666497
B             5.4390503789        5.4390503789        3.6266739663
B             5.4387593226        5.4387593226        7.2509687324
B             5.4420666203        9.0647235977       -0.0000493521
B             5.4360876179        9.0655397463        3.6291085560
B             5.4387632514        9.0634353140        7.2501063372
B             9.0560288722        1.8116228683       -0.0057272169
B             9.0629065104        1.8140513373        3.6277164508
B             9.0701382003        1.8240592770        7.2418584003
B             9.0647235977        5.4420666203       -0.0000493521
B             9.0655397463        5.4360876179        3.6291085560
B             9.0634353140        5.4387632514        7.2501063372
B             9.0482373024        9.0482373024        0.0584263463
B             9.0633278419        9.0633278419        3.6261629238
B             9.0658907713        9.0658907713        7.2611818422
N             0.9085380292        0.9085380292        2.7220310412
N             0.9109868309        0.9109868309        6.3395859204
N             0.9170472698        0.9170472698        9.9677384392
N             0.9094650444        4.5313787515        2.7218709390
N             0.9095158314        4.5327559978        6.3424435765
N             0.9085695486        4.5324102601        9.9717495481
N             0.9110434113        8.1553240298        2.7250514317
N             0.9110290074        8.1552783667        6.3390686242
N             0.9454003940        8.1248393044        9.9686567140
N             4.5313787515        0.9094650444        2.7218709390
N             4.5327559978        0.9095158314        6.3424435765
N             4.5324102601        0.9085695486        9.9717495481
N             4.5326303405        4.5326303405        2.7213881558
N             4.5325688728        4.5325688728        6.3436816708
N             4.5318074295        4.5318074295        9.9715856022
N             4.5322680594        8.1565623080        2.7222626231
N             4.5329392682        8.1561404369        6.3421595683
N             4.5332201456        8.1564539578        9.9715042020
N             8.1553240298        0.9110434113        2.7250514317
N             8.1552783667        0.9110290074        6.3390686242
N             8.1248393044        0.9454003940        9.9686567140
N             8.1565623080        4.5322680594        2.7222626231
N             8.1561404369        4.5329392682        6.3421595683
N             8.1564539578        4.5332201456        9.9715042020
N             8.1542352185        8.1542352185        2.7278569807
N             8.1551129178        8.1551129178        6.3406669132
N             8.1357720694        8.1357720694        9.9734027800
N             0.9085380292        2.7220310412        0.9085380292
N             0.9094650444        2.7218709390        4.5313787515
N             0.9110434113        2.7250514317        8.1553240298
N             0.9109868309        6.3395859204        0.9109868309
N             0.9095158314        6.3424435765        4.5327559978
N             0.9110290074        6.3390686242        8.1552783667
N             0.9170472698        9.9677384392        0.9170472698
N             0.9085695486        9.9717495481        4.5324102601
N             0.9454003940        9.9686567140        8.1248393044
N             4.5313787515        2.7218709390        0.9094650444
N             4.5326303405        2.7213881558        4.5326303405
N             4.5322680594        2.7222626231        8.1565623080
N             4.5327559978        6.3424435765        0.9095158314
N             4.5325688728        6.3436816708        4.5325688728
N             4.5329392682        6.3421595683        8.1561404369
N             4.5324102601        9.9717495481        0.9085695486
N             4.5318074295        9.9715856022        4.5318074295
N             4.5332201456        9.9715042020        8.1564539578
N             8.1553240298        2.7250514317        0.9110434113
N             8.1565623080        2.7222626231        4.5322680594
N             8.1542352185        2.7278569807        8.1542352185
N             8.1552783667        6.3390686242        0.9110290074
N             8.1561404369        6.3421595683        4.5329392682
N             8.1551129178        6.3406669132        8.1551129178
N             8.1248393044        9.9686567140        0.9454003940
N             8.1564539578        9.9715042020        4.5332201456
N             8.1357720694        9.9734027800        8.1357720694
N             2.7220310412        0.9085380292        0.9085380292
N             2.7218709390        0.9094650444        4.5313787515
N             2.7250514317        0.9110434113        8.1553240298
N             2.7218709390        4.5313787515        0.9094650444
N             2.7213881558        4.5326303405        4.5326303405
N             2.7222626231        4.5322680594        8.1565623080
N             2.7250514317        8.1553240298        0.9110434113
N             2.7222626231        8.1565623080        4.5322680594
N             2.7278569807        8.1542352185        8.1542352185
N             6.3395859204        0.9109868309        0.9109868309
N             6.3424435765        0.9095158314        4.5327559978
N             6.3390686242        0.9110290074        8.1552783667
N             6.3424435765        4.5327559978        0.9095158314
N             6.3436816708        4.5325688728        4.5325688728
N             6.3421595683        4.5329392682        8.1561404369
N             6.3390686242        8.1552783667        0.9110290074
N             6.3421595683        8.1561404369        4.5329392682
N             6.3406669132        8.1551129178        8.1551129178
N             9.9677384392        0.9170472698        0.9170472698
N             9.9717495481        0.9085695486        4.5324102601
N             9.9686567140        0.9454003940        8.1248393044
N             9.9717495481        4.5324102601        0.9085695486
N             9.9715856022        4.5318074295        4.5318074295
N             9.9715042020        4.5332201456        8.1564539578
N             9.9686567140        8.1248393044        0.9454003940
N             9.9715042020        8.1564539578        4.5332201456
N             9.9734027800        8.1357720694        8.1357720694
N             2.7209901814        2.7209901814        2.7209901814
N             2.7218464176        2.7218464176        6.3428756301
N             2.7244774250        2.7244774250        9.9711688442
N             2.7218464176        6.3428756301        2.7218464176
N             2.7215673434        6.3434636270        6.3434636270
N             2.7314844085        6.3334465406        9.9716295057
N             2.7244774250        9.9711688442        2.7244774250
N             2.7314844085        9.9716295057        6.3334465406
N             2.7220631445        9.9704650975        9.9704650975
N             6.3428756301        2.7218464176        2.7218464176
N             6.3434636270        2.7215673434        6.3434636270
N             6.3334465406        2.7314844085        9.9716295057
N             6.3434636270        6.3434636270        2.7215673434
N             6.3429479233        6.3429479233        6.3429479233
N             6.3371773868        6.3371773868        9.9716205331
N             6.3334465406        9.9716295057        2.7314844085
N             6.3371773868        9.9716205331        6.3371773868
N             6.3452339152        9.9720497723        9.9720497723
N             9.9711688442        2.7244774250        2.7244774250
N             9.9716295057        2.7314844085        6.3334465406
N             9.9704650975        2.7220631445        9.9704650975
N             9.9716295057        6.3334465406        2.7314844085
N             9.9716205331        6.3371773868        6.3371773868
N             9.9720497723        6.3452339152        9.9720497723
N             9.9704650975        9.9704650975        2.7220631445
N             9.9720497723        9.9720497723        6.3452339152
B             9.9186912879        9.9186912879        9.9186912879
K_POINTS gamma
CELL_PARAMETERS angstrom
     10.8780060000       0.0000000000       0.0000000000
      0.0000000000      10.8780060000       0.0000000000
      0.0000000000       0.0000000000      10.8780060000
