&CONTROL
  calculation = 'scf'
  etot_conv_thr =   2.1600000000d-03
  forc_conv_thr =   1.0000000000d-04
  outdir = './out/'
  prefix = 'aiida'
  pseudo_dir = './pseudo/'
  tprnfor = .true.
  !tstress = .true.
  verbosity = 'high'
  disk_io   = 'high'
  max_seconds = 14400
/
&SYSTEM
  degauss =   1.4699723600d-02
  ecutwfc =   10.0000000000d+01
  ibrav = 0
  nat = 215
  nosym = .false.
  ntyp = 2
  occupations = 'smearing'
  smearing = 'mv'
  tot_charge = -1
  nspin = 2
  starting_magnetization(1) =  0.5
  starting_magnetization(2) = -0.5
  input_dft = 'pbe0'
  exx_fraction = 0.23
  ecutfock = 120
  ace = .true.
  localization_thr = 0.001
/
&ELECTRONS
  conv_thr =   4.3200000000d-08
  electron_maxstep = 80
  mixing_beta =   4.0000000000d-01
  adaptive_thr = .True.
  conv_thr_init = 1.D-3 
  conv_thr_multi = 1.D-2
/
&IONS
/
ATOMIC_SPECIES
B      10.811 B_ONCV_PBE-1.2.upf
N      14.0067 N_ONCV_PBE-1.2.upf
ATOMIC_POSITIONS (angstrom)
B            -0.4155660973       -0.4155660973       -0.4155660973
B            -0.0056205632       -0.0056205632        3.6140375054
B             0.0070046124        0.0070046124        7.2523620132
B            -0.0056205632        3.6140375054       -0.0056205632
B            -0.0045866700        3.6170993236        3.6170993236
B             0.0052125486        3.6327238502        7.2486961386
B             0.0070046124        7.2523620132        0.0070046124
B             0.0052125486        7.2486961386        3.6327238502
B             0.0113070791        7.2688082619        7.2688082619
B             3.6140375054       -0.0056205632       -0.0056205632
B             3.6170993236       -0.0045866700        3.6170993236
B             3.6327238502        0.0052125486        7.2486961386
B             3.6170993236        3.6170993236       -0.0045866700
B             3.6209032287        3.6209032287        3.6209032287
B             3.6293513189        3.6293513189        7.2501261268
B             3.6327238502        7.2486961386        0.0052125486
B             3.6293513189        7.2501261268        3.6293513189
B             3.6346139078        7.2557812865        7.2557812865
B             7.2523620132        0.0070046124        0.0070046124
B             7.2486961386        0.0052125486        3.6327238502
B             7.2688082619        0.0113070791        7.2688082619
B             7.2486961386        3.6327238502        0.0052125486
B             7.2501261268        3.6293513189        3.6293513189
B             7.2557812865        3.6346139078        7.2557812865
B             7.2688082619        7.2688082619        0.0113070791
B             7.2557812865        7.2557812865        3.6346139078
B             7.2648298732        7.2648298732        7.2648298732
B            -0.0288899219        1.7647231996        1.7647231996
B             0.0003162763        1.8142086523        5.4338823815
B             0.0130761123        1.8092324670        9.0542690101
B             0.0003162763        5.4338823815        1.8142086523
B             0.0040671424        5.4427106894        5.4427106894
B             0.0041290518        5.4415103410        9.0687842930
B             0.0130761123        9.0542690101        1.8092324670
B             0.0041290518        9.0687842930        5.4415103410
B             0.0913712682        9.0969935624        9.0969935624
B             3.6069545521        1.8004961651        1.8004961651
B             3.6244351641        1.8131896637        5.4327813579
B             3.6245927737        1.8145174040        9.0602735953
B             3.6244351641        5.4327813579        1.8131896637
B             3.6292387364        5.4396995038        5.4396995038
B             3.6329464983        5.4398096297        9.0665826164
B             3.6245927737        9.0602735953        1.8145174040
B             3.6329464983        9.0665826164        5.4398096297
B             3.6264400833        9.0699697274        9.0699697274
B             7.2474586412        1.8185723721        1.8185723721
B             7.2515188179        1.8177608151        5.4409209887
B             7.2443089383        1.8264703208        9.0683427137
B             7.2515188179        5.4409209887        1.8177608151
B             7.2562762280        5.4459965112        5.4459965112
B             7.2619553252        5.4506301978        9.0716828681
B             7.2443089383        9.0683427137        1.8264703208
B             7.2619553252        9.0716828681        5.4506301978
B             7.2823242633        9.0865374282        9.0865374282
B             1.7647231996       -0.0288899219        1.7647231996
B             1.8142086523        0.0003162763        5.4338823815
B             1.8092324670        0.0130761123        9.0542690101
B             1.8004961651        3.6069545521        1.8004961651
B             1.8131896637        3.6244351641        5.4327813579
B             1.8145174040        3.6245927737        9.0602735953
B             1.8185723721        7.2474586412        1.8185723721
B             1.8177608151        7.2515188179        5.4409209887
B             1.8264703208        7.2443089383        9.0683427137
B             5.4338823815        0.0003162763        1.8142086523
B             5.4427106894        0.0040671424        5.4427106894
B             5.4415103410        0.0041290518        9.0687842930
B             5.4327813579        3.6244351641        1.8131896637
B             5.4396995038        3.6292387364        5.4396995038
B             5.4398096297        3.6329464983        9.0665826164
B             5.4409209887        7.2515188179        1.8177608151
B             5.4459965112        7.2562762280        5.4459965112
B             5.4506301978        7.2619553252        9.0716828681
B             9.0542690101        0.0130761123        1.8092324670
B             9.0687842930        0.0041290518        5.4415103410
B             9.0969935624        0.0913712682        9.0969935624
B             9.0602735953        3.6245927737        1.8145174040
B             9.0665826164        3.6329464983        5.4398096297
B             9.0699697274        3.6264400833        9.0699697274
B             9.0683427137        7.2443089383        1.8264703208
B             9.0716828681        7.2619553252        5.4506301978
B             9.0865374282        7.2823242633        9.0865374282
B             1.7647231996        1.7647231996       -0.0288899219
B             1.8004961651        1.8004961651        3.6069545521
B             1.8185723721        1.8185723721        7.2474586412
B             1.8142086523        5.4338823815        0.0003162763
B             1.8131896637        5.4327813579        3.6244351641
B             1.8177608151        5.4409209887        7.2515188179
B             1.8092324670        9.0542690101        0.0130761123
B             1.8145174040        9.0602735953        3.6245927737
B             1.8264703208        9.0683427137        7.2443089383
B             5.4338823815        1.8142086523        0.0003162763
B             5.4327813579        1.8131896637        3.6244351641
B             5.4409209887        1.8177608151        7.2515188179
B             5.4427106894        5.4427106894        0.0040671424
B             5.4396995038        5.4396995038        3.6292387364
B             5.4459965112        5.4459965112        7.2562762280
B             5.4415103410        9.0687842930        0.0041290518
B             5.4398096297        9.0665826164        3.6329464983
B             5.4506301978        9.0716828681        7.2619553252
B             9.0542690101        1.8092324670        0.0130761123
B             9.0602735953        1.8145174040        3.6245927737
B             9.0683427137        1.8264703208        7.2443089383
B             9.0687842930        5.4415103410        0.0041290518
B             9.0665826164        5.4398096297        3.6329464983
B             9.0716828681        5.4506301978        7.2619553252
B             9.0969935624        9.0969935624        0.0913712682
B             9.0699697274        9.0699697274        3.6264400833
B             9.0865374282        9.0865374282        7.2823242633
N             0.8899508689        0.8899508689        2.6983019347
N             0.9113694567        0.9113694567        6.3401601389
N             0.8941857509        0.8941857509        9.8925371630
N             0.9047386789        4.5240920204        2.7155163385
N             0.9102078130        4.5369934792        6.3411034577
N             0.9081893127        4.5320682358        9.9703426695
N             0.9124705481        8.1425869847        2.7357425475
N             0.9140343142        8.1603088744        6.3464070555
N             0.9366345925        8.1358247501        9.9754001017
N             4.5240920204        0.9047386789        2.7155163385
N             4.5369934792        0.9102078130        6.3411034577
N             4.5320682358        0.9081893127        9.9703426695
N             4.5301263389        4.5301263389        2.7203557660
N             4.5368841727        4.5368841727        6.3458711107
N             4.5346552055        4.5346552055        9.9718375945
N             4.5367330062        8.1561085739        2.7257559632
N             4.5423184158        8.1618743925        6.3507292048
N             4.5388745758        8.1600988872        9.9749084931
N             8.1425869847        0.9124705481        2.7357425475
N             8.1603088744        0.9140343142        6.3464070555
N             8.1358247501        0.9366345925        9.9754001017
N             8.1561085739        4.5367330062        2.7257559632
N             8.1618743925        4.5423184158        6.3507292048
N             8.1600988872        4.5388745758        9.9749084931
N             8.1577122562        8.1577122562        2.7292646410
N             8.1709816329        8.1709816329        6.3629103418
N             8.1962398664        8.1962398664        9.9940529183
N             0.8899508689        2.6983019347        0.8899508689
N             0.9047386789        2.7155163385        4.5240920204
N             0.9124705481        2.7357425475        8.1425869847
N             0.9113694567        6.3401601389        0.9113694567
N             0.9102078130        6.3411034577        4.5369934792
N             0.9140343142        6.3464070555        8.1603088744
N             0.8941857509        9.8925371630        0.8941857509
N             0.9081893127        9.9703426695        4.5320682358
N             0.9366345925        9.9754001017        8.1358247501
N             4.5240920204        2.7155163385        0.9047386789
N             4.5301263389        2.7203557660        4.5301263389
N             4.5367330062        2.7257559632        8.1561085739
N             4.5369934792        6.3411034577        0.9102078130
N             4.5368841727        6.3458711107        4.5368841727
N             4.5423184158        6.3507292048        8.1618743925
N             4.5320682358        9.9703426695        0.9081893127
N             4.5346552055        9.9718375945        4.5346552055
N             4.5388745758        9.9749084931        8.1600988872
N             8.1425869847        2.7357425475        0.9124705481
N             8.1561085739        2.7257559632        4.5367330062
N             8.1577122562        2.7292646410        8.1577122562
N             8.1603088744        6.3464070555        0.9140343142
N             8.1618743925        6.3507292048        4.5423184158
N             8.1709816329        6.3629103418        8.1709816329
N             8.1358247501        9.9754001017        0.9366345925
N             8.1600988872        9.9749084931        4.5388745758
N             8.1962398664        9.9940529183        8.1962398664
N             2.6983019347        0.8899508689        0.8899508689
N             2.7155163385        0.9047386789        4.5240920204
N             2.7357425475        0.9124705481        8.1425869847
N             2.7155163385        4.5240920204        0.9047386789
N             2.7203557660        4.5301263389        4.5301263389
N             2.7257559632        4.5367330062        8.1561085739
N             2.7357425475        8.1425869847        0.9124705481
N             2.7257559632        8.1561085739        4.5367330062
N             2.7292646410        8.1577122562        8.1577122562
N             6.3401601389        0.9113694567        0.9113694567
N             6.3411034577        0.9102078130        4.5369934792
N             6.3464070555        0.9140343142        8.1603088744
N             6.3411034577        4.5369934792        0.9102078130
N             6.3458711107        4.5368841727        4.5368841727
N             6.3507292048        4.5423184158        8.1618743925
N             6.3464070555        8.1603088744        0.9140343142
N             6.3507292048        8.1618743925        4.5423184158
N             6.3629103418        8.1709816329        8.1709816329
N             9.8925371630        0.8941857509        0.8941857509
N             9.9703426695        0.9081893127        4.5320682358
N             9.9754001017        0.9366345925        8.1358247501
N             9.9703426695        4.5320682358        0.9081893127
N             9.9718375945        4.5346552055        4.5346552055
N             9.9749084931        4.5388745758        8.1600988872
N             9.9754001017        8.1358247501        0.9366345925
N             9.9749084931        8.1600988872        4.5388745758
N             9.9940529183        8.1962398664        8.1962398664
N             2.7108295326        2.7108295326        2.7108295326
N             2.7232650969        2.7232650969        6.3378149288
N             2.7132882739        2.7132882739        9.9626669366
N             2.7232650969        6.3378149288        2.7232650969
N             2.7258875833        6.3464878348        6.3464878348
N             2.7305665594        6.3382253734        9.9729392104
N             2.7132882739        9.9626669366        2.7132882739
N             2.7305665594        9.9729392104        6.3382253734
N             2.7205914077        9.9687869540        9.9687869540
N             6.3378149288        2.7232650969        2.7232650969
N             6.3464878348        2.7258875833        6.3464878348
N             6.3382253734        2.7305665594        9.9729392104
N             6.3464878348        6.3464878348        2.7258875833
N             6.3528977386        6.3528977386        6.3528977386
N             6.3568281666        6.3568281666        9.9770477853
N             6.3382253734        9.9729392104        2.7305665594
N             6.3568281666        9.9770477853        6.3568281666
N             6.3495222581        9.9781930511        9.9781930511
N             9.9626669366        2.7132882739        2.7132882739
N             9.9729392104        2.7305665594        6.3382253734
N             9.9687869540        2.7205914077        9.9687869540
N             9.9729392104        6.3382253734        2.7305665594
N             9.9770477853        6.3568281666        6.3568281666
N             9.9781930511        6.3495222581        9.9781930511
N             9.9687869540        9.9687869540        2.7205914077
N             9.9781930511        9.9781930511        6.3495222581
K_POINTS gamma
CELL_PARAMETERS angstrom
     10.8780060000       0.0000000000       0.0000000000
      0.0000000000      10.8780060000       0.0000000000
      0.0000000000       0.0000000000      10.8780060000
