&CONTROL
  calculation = 'scf'
  etot_conv_thr =   2.1600000000d-03
  forc_conv_thr =   1.0000000000d-04
  outdir = './out/'
  prefix = 'aiida'
  pseudo_dir = './pseudo/'
  tprnfor = .true.
  !tstress = .true.
  verbosity = 'high'
  disk_io   = 'high'
  max_seconds = 14400
/
&SYSTEM
  degauss =   1.4699723600d-02
  ecutwfc =   10.0000000000d+01
  ibrav = 0
  nat = 214
  nosym = .false.
  ntyp = 2
  occupations = 'smearing'
  smearing = 'mv'
  tot_charge = 0
  nspin = 2
  starting_magnetization(1) =  0.5
  starting_magnetization(2) = -0.5
  input_dft = 'pbe0'
  exx_fraction = 0.23
  ecutfock = 120
  ace = .true.
  localization_thr = 0.001
/
&ELECTRONS
  conv_thr =   4.3200000000d-08
  electron_maxstep = 80
  mixing_beta =   4.0000000000d-01
  adaptive_thr = .True.
  conv_thr_init = 1.D-3 
  conv_thr_multi = 1.D-2
/
&IONS
/
ATOMIC_SPECIES
B      10.811 B_ONCV_PBE-1.2.upf
N      14.0067 N_ONCV_PBE-1.2.upf
ATOMIC_POSITIONS (angstrom)
B             0.0044759974        0.0044759974        0.0083104941
B            -0.0022546332       -0.0022546332        7.2478907854
B             0.0021189510        3.6293598409       -0.0033566736
B             0.0044760549        3.6176926630        3.6215271597
B             0.0013669269        3.6239232798        7.2500533015
B             0.0013669844        7.2539523741        0.0020798773
B            -0.0022546907        7.2561148902        3.6282577903
B            -0.0009374009        7.2482883048        7.2557173810
B             3.6293598409        0.0021189510       -0.0033566736
B             3.6176926630        0.0044760549        3.6215271597
B             3.6239232798        0.0013669269        7.2500533015
B             3.6287541276        3.6287541276       -0.0027509130
B             3.6293598719        3.6293598719        3.6238842473
B             3.6252029860        3.6252029860        7.2486212861
B             3.6252029349        7.2553843486        0.0008001647
B             3.6239233309        7.2539523332        3.6246362238
B             3.6259996480        7.2521195648        7.2518860386
B             7.2539523741        0.0013669844        0.0020798773
B             7.2561148902       -0.0022546907        3.6282577903
B             7.2482883048       -0.0009374009        7.2557173810
B             7.2553843486        3.6252029349        0.0008001647
B             7.2539523332        3.6239233309        3.6246362238
B             7.2521195648        3.6259996480        7.2518860386
B             7.2521196060        7.2521196060        0.0000036078
B             7.2482882636        7.2482882636        3.6269406567
B             7.2519507535        7.2519507535        7.2520548301
B             0.0343650716        1.8311571739        1.7948424551
B            -0.0007184272        1.7886200922        5.4197594896
B             0.0017199810        1.8119376948        9.0635497713
B             0.0017200492        5.4404594142        1.8140619260
B             0.0002265229        5.4364748668        5.4364866934
B             0.0010911721        5.4384120361        9.0655971576
B            -0.0007184954        9.0842496959        1.8373795286
B            -0.0050707092        9.0702809238        5.4337282699
B             0.0002265911        9.0675224921        9.0675343187
B             3.6326933942        1.8185279951        1.8074716003
B             3.6174854116        1.8142630276        5.4292788452
B             3.6261419999        1.8140912544        9.0619591551
B             3.6261419497        5.4420501295        1.8119082996
B             3.6254526595        5.4381742338        5.4377950222
B             3.6265726040        5.4401330384        9.0638761230
B             3.6174854618        9.0747304394        1.8117365264
B             3.6238274781        9.0657433341        5.4382658273
B             3.6254527220        9.0662141801        9.0658349685
B             7.2576951726        1.8091827596        1.8168167722
B             7.2518437449        1.8124661886        5.4400723839
B             7.2542315778        1.8138126871        9.0674353589
B             7.2542316398        5.4365737929        1.8121868987
B             7.2519430019        5.4380257053        5.4388331894
B             7.2528617998        5.4390564194        9.0649528430
B             7.2518436829        9.0639367679        1.8135333972
B             7.2513395339        9.0651507135        5.4388585489
B             7.2519429512        9.0651760447        9.0659835288
B             1.8311571739        0.0343650716        1.7948424551
B             1.7886200922       -0.0007184272        5.4197594896
B             1.8119376948        0.0017199810        9.0635497713
B             1.8185279951        3.6326933942        1.8074716003
B             1.8142630276        3.6174854116        5.4292788452
B             1.8140912544        3.6261419999        9.0619591551
B             1.8091827596        7.2576951726        1.8168167722
B             1.8124661886        7.2518437449        5.4400723839
B             1.8138126871        7.2542315778        9.0674353589
B             5.4404594142        0.0017200492        1.8140619260
B             5.4364748668        0.0002265229        5.4364866934
B             5.4384120361        0.0010911721        9.0655971576
B             5.4420501295        3.6261419497        1.8119082996
B             5.4381742338        3.6254526595        5.4377950222
B             5.4401330384        3.6265726040        9.0638761230
B             5.4365737929        7.2542316398        1.8121868987
B             5.4380257053        7.2519430019        5.4388331894
B             5.4390564194        7.2528617998        9.0649528430
B             9.0842496959       -0.0007184954        1.8373795286
B             9.0702809238       -0.0050707092        5.4337282699
B             9.0675224921        0.0002265911        9.0675343187
B             9.0747304394        3.6174854618        1.8117365264
B             9.0657433341        3.6238274781        5.4382658273
B             9.0662141801        3.6254527220        9.0658349685
B             9.0639367679        7.2518436829        1.8135333972
B             9.0651507135        7.2513395339        5.4388585489
B             9.0651760447        7.2519429512        9.0659835288
B             1.8185280119        1.8185280119       -0.0066900997
B             1.8311571571        1.8311571571        3.5916382229
B             1.8091827596        1.8091827596        7.2463103984
B             1.8140912948        5.4420500790       -0.0001387854
B             1.8119376684        5.4404594647        3.6242831151
B             1.8138126775        5.4365737929        7.2497740316
B             1.8142630540        9.0747303908        0.0085176845
B             1.7886200518        9.0842497445        3.6267216417
B             1.8124661982        9.0639367679        7.2521618645
B             5.4420500790        1.8140912948       -0.0001387854
B             5.4404594647        1.8119376684        3.6242831151
B             5.4365737929        1.8138126775        7.2497740316
B             5.4401330889        5.4401330889       -0.0005694397
B             5.4384120361        5.4384120361        3.6249119917
B             5.4390563689        5.4390563689        7.2511438721
B             5.4381742338        9.0662141715        0.0005505043
B             5.4364748163        9.0675225185        3.6257766414
B             5.4380257558        9.0651760225        7.2520626700
B             9.0747303908        1.8142630540        0.0085176845
B             9.0842497445        1.7886200518        3.6267216417
B             9.0639367679        1.8124661982        7.2521618645
B             9.0662141715        5.4381742338        0.0005505043
B             9.0675225185        5.4364748163        3.6257766414
B             9.0651760225        5.4380257558        7.2520626700
B             9.0657433077        9.0657433077        0.0021757544
B             9.0702809324        9.0702809324        3.6310739355
B             9.0651507357        9.0651507357        7.2526660873
N             0.9037577913        0.9037577913        6.3407897693
N             0.9093653663        0.9093653663        9.9715229586
N             0.9093652812        4.5324828217        2.7166377371
N             0.9069210654        4.5261278098        6.3386987618
N             0.9088031822        4.5332303028        9.9707752852
N             0.9037576809        8.1632194655        2.7222453859
N             0.9087084025        8.1462466230        6.3577624933
N             0.9069208749        8.1653106248        9.9778777274
N             4.5324828217        0.9093652812        2.7166377371
N             4.5261278098        0.9069210654        6.3386987618
N             4.5332303028        0.9088031822        9.9707752852
N             4.5332304577        4.5332304577        2.7172002857
N             4.5314940756        4.5314940756        6.3438099809
N             4.5339711596        4.5339711596        9.9700341871
N             4.5261278308        8.1653104300        2.7190823961
N             4.5323086104        8.1578426382        6.3461661510
N             4.5314942772        8.1601993370        9.9725115882
N             8.1632194655        0.9037576809        2.7222453859
N             8.1462466230        0.9087084025        6.3577624933
N             8.1653106248        0.9069208749        9.9778777274
N             8.1653104300        4.5261278308        2.7190823961
N             8.1578426382        4.5323086104        6.3461661510
N             8.1601993370        4.5314942772        9.9725115882
N             8.1462465383        8.1462465383        2.7172947005
N             8.1571327325        8.1571327325        6.3468764383
N             8.1578429289        8.1578429289        9.9716972429
N             0.9178689984        2.7215082646        0.9044948116
N             0.9044832708        2.6946572727        4.5006310039
N             0.9074870852        2.7187994655        8.1565624106
N             0.9074871956        6.3474468242        0.9072037117
N             0.9067783800        6.3450260879        4.5321760882
N             0.9072926405        6.3427026682        8.1613064481
N             0.9044833559       10.0033747764        0.9313458307
N             0.9642347144        9.8918151404        4.6121904476
N             0.9067781895        9.9718294490        8.1589832987
N             4.5358443424        2.7222308028        0.9037722155
N             4.5295457570        2.7183339296        4.5285280772
N             4.5317769205        2.7197508029        8.1563988899
N             4.5317768995        6.3476103019        0.9062526586
N             4.5317312451        6.3442916863        4.5320236973
N             4.5325763912        6.3453688082        8.1586399810
N             4.5295456021        9.9754776657        0.9076695383
N             4.5273519687        9.9743950123        4.5296103344
N             4.5317314467        9.9719819665        8.1597176316
N             8.1660739636        2.7160617359        0.9099413309
N             8.1549239163        2.7242964432        4.5339416158
N             8.1586005373        2.7202677365        8.1612250394
N             8.1586006220        6.3427839922        0.9057353665
N             8.1577021904        6.3418905044        4.5327039452
N             8.1584792043        6.3445271479        8.1594820229
N             8.1549241111        9.9700639424        0.9017068278
N             8.1549004011        9.9687338437        4.5352720217
N             8.1577024811        9.9713019081        8.1621185755
N             2.7215082646        0.9178689984        0.9044948116
N             2.6946572727        0.9044832708        4.5006310039
N             2.7187994655        0.9074870852        8.1565624106
N             2.7222308028        4.5358443424        0.9037722155
N             2.7183339296        4.5295457570        4.5285280772
N             2.7197508029        4.5317769205        8.1563988899
N             2.7160617359        8.1660739636        0.9099413309
N             2.7242964432        8.1549239163        4.5339416158
N             2.7202677365        8.1586005373        8.1612250394
N             6.3474468242        0.9074871956        0.9072037117
N             6.3450260879        0.9067783800        4.5321760882
N             6.3427026682        0.9072926405        8.1613064481
N             6.3476103019        4.5317768995        0.9062526586
N             6.3442916863        4.5317312451        4.5320236973
N             6.3453688082        4.5325763912        8.1586399810
N             6.3427839922        8.1586006220        0.9057353665
N             6.3418905044        8.1577021904        4.5327039452
N             6.3445271479        8.1584792043        8.1594820229
N            10.0033747764        0.9044833559        0.9313458307
N             9.8918151404        0.9642347144        4.6121904476
N             9.9718294490        0.9067781895        8.1589832987
N             9.9754776657        4.5295456021        0.9076695383
N             9.9743950123        4.5273519687        4.5296103344
N             9.9719819665        4.5317314467        8.1597176316
N             9.9700639424        8.1549241111        0.9017068278
N             9.9687338437        8.1549004011        4.5352720217
N             9.9713019081        8.1577024811        8.1621185755
N             2.7215084190        2.7215084190        2.7081342322
N             2.7160618365        2.7160618365        6.3379353078
N             2.7222308273        2.7222308273        9.9681614990
N             2.7187995661        6.3474468608        2.7185160822
N             2.7202679670        6.3427839803        6.3454084824
N             2.7197506778        6.3476101013        9.9722287653
N             2.6946572972       10.0033748375        2.7215197720
N             2.7242963181        9.9700640700        6.3490850749
N             2.7183335447        9.9754776725        9.9744599927
N             6.3474468608        2.7187995661        2.7185160822
N             6.3427839803        2.7202679670        6.3454084824
N             6.3476101013        2.7197506778        9.9722287653
N             6.3427026563        6.3427026563        2.7187106930
N             6.3445271699        6.3445271699        6.3455299885
N             6.3453690207        6.3453690207        9.9714291680
N             6.3450258873        9.9718295766        2.7192249564
N             6.3418907169        9.9713016140        6.3463068113
N             6.3442916277        9.9719818321        9.9722742843
N            10.0033748375        2.6946572972        2.7215197720
N             9.9700640700        2.7242963181        6.3490850749
N             9.9754776725        2.7183335447        9.9744599927
N             9.9718295766        6.3450258873        2.7192249564
N             9.9713016140        6.3418907169        6.3463068113
N             9.9719818321        6.3442916277        9.9722742843
N             9.8918151472        9.8918151472        2.6617683686
N             9.9687337093        9.9687337093        6.3491088582
N             9.9743952453        9.9743952453        9.9766536110
K_POINTS gamma
CELL_PARAMETERS angstrom
     10.8780060000       0.0000000000       0.0000000000
      0.0000000000      10.8780060000       0.0000000000
      0.0000000000       0.0000000000      10.8780060000
