&CONTROL
  calculation = 'scf'
  etot_conv_thr =   2.1600000000d-03
  forc_conv_thr =   1.0000000000d-04
  outdir = './out/'
  prefix = 'aiida'
  pseudo_dir = './pseudo/'
  tprnfor = .true.
  !tstress = .true.
  verbosity = 'high'
  disk_io   = 'high'
  max_seconds = 14400
/
&SYSTEM
  degauss =   1.4699723600d-02
  ecutwfc =   10.0000000000d+01
  ibrav = 0
  nat = 215
  nosym = .false.
  ntyp = 2
  occupations = 'smearing'
  smearing = 'mv'
  tot_charge = 2
  nspin = 2
  starting_magnetization(1) =  0.5
  starting_magnetization(2) = -0.5
  input_dft = 'pbe0'
  exx_fraction = 0.23
  ecutfock = 120
  ace = .true.
  localization_thr = 0.001
/
&ELECTRONS
  conv_thr =   4.3200000000d-08
  electron_maxstep = 80
  mixing_beta =   4.0000000000d-01
  adaptive_thr = .True.
  conv_thr_init = 1.D-3 
  conv_thr_multi = 1.D-2
/
&IONS
/
ATOMIC_SPECIES
B      10.811 B_ONCV_PBE-1.2.upf
N      14.0067 N_ONCV_PBE-1.2.upf
ATOMIC_POSITIONS (angstrom)
B             0.1264519530        0.1264519530        0.1264519530
B            -0.0003597389       -0.0003597389        3.6331297260
B            -0.0040628574       -0.0040628574        7.2416271232
B            -0.0003597389        3.6331297260       -0.0003597389
B             0.0042098898        3.6283061931        3.6283061931
B            -0.0005481873        3.6299507848        7.2502867906
B            -0.0040628574        7.2416271232       -0.0040628574
B            -0.0005481873        7.2502867906        3.6299507848
B             0.0190426568        7.2374681971        7.2374681971
B             3.6331297260       -0.0003597389       -0.0003597389
B             3.6283061931        0.0042098898        3.6283061931
B             3.6299507848       -0.0005481873        7.2502867906
B             3.6283061931        3.6283061931        0.0042098898
B             3.6275456401        3.6275456401        3.6275456401
B             3.6252130298        3.6252130298        7.2502747302
B             3.6299507848        7.2502867906       -0.0005481873
B             3.6252130298        7.2502747302        3.6252130298
B             3.6342570415        7.2447938008        7.2447938008
B             7.2416271232       -0.0040628574       -0.0040628574
B             7.2502867906       -0.0005481873        3.6299507848
B             7.2374681971        0.0190426568        7.2374681971
B             7.2502867906        3.6299507848       -0.0005481873
B             7.2502747302        3.6252130298        3.6252130298
B             7.2447938008        3.6342570415        7.2447938008
B             7.2374681971        7.2374681971        0.0190426568
B             7.2447938008        7.2447938008        3.6342570415
B             7.2493082426        7.2493082426        7.2493082426
B             0.0194561529        1.8278885765        1.8278885765
B            -0.0005364676        1.8147145935        5.4350218472
B            -0.0041595498        1.8230731320        9.0693383530
B            -0.0005364676        5.4350218472        1.8147145935
B             0.0042986463        5.4367559492        5.4367559492
B            -0.0004271736        5.4320676652        9.0653726478
B            -0.0041595498        9.0693383530        1.8230731320
B            -0.0004271736        9.0653726478        5.4320676652
B             0.1263815454        8.9387647666        8.9387647666
B             3.6342228566        1.8202902677        1.8202902677
B             3.6251833520        1.8148130575        5.4397819660
B             3.6299350843        1.8147250828        9.0654067414
B             3.6251833520        5.4397819660        1.8148130575
B             3.6276344165        5.4374886584        5.4374886584
B             3.6283288757        5.4366855992        9.0608378968
B             3.6299350843        9.0654067414        1.8147250828
B             3.6283288757        9.0608378968        5.4366855992
B             3.6330219721        9.0653587259        9.0653587259
B             7.2494743422        1.8155014402        1.8155014402
B             7.2447216127        1.8202591142        5.4308807530
B             7.2371676227        1.8276938545        9.0457231326
B             7.2447216127        5.4308807530        1.8202591142
B             7.2503003420        5.4398416396        5.4398416396
B             7.2502526693        5.4350857950        9.0655042390
B             7.2371676227        9.0457231326        1.8276938545
B             7.2502526693        9.0655042390        5.4350857950
B             7.2418703369        9.0691930558        9.0691930558
B             1.8278885765        0.0194561529        1.8278885765
B             1.8147145935       -0.0005364676        5.4350218472
B             1.8230731320       -0.0041595498        9.0693383530
B             1.8202902677        3.6342228566        1.8202902677
B             1.8148130575        3.6251833520        5.4397819660
B             1.8147250828        3.6299350843        9.0654067414
B             1.8155014402        7.2494743422        1.8155014402
B             1.8202591142        7.2447216127        5.4308807530
B             1.8276938545        7.2371676227        9.0457231326
B             5.4350218472       -0.0005364676        1.8147145935
B             5.4367559492        0.0042986463        5.4367559492
B             5.4320676652       -0.0004271736        9.0653726478
B             5.4397819660        3.6251833520        1.8148130575
B             5.4374886584        3.6276344165        5.4374886584
B             5.4366855992        3.6283288757        9.0608378968
B             5.4308807530        7.2447216127        1.8202591142
B             5.4398416396        7.2503003420        5.4398416396
B             5.4350857950        7.2502526693        9.0655042390
B             9.0693383530       -0.0041595498        1.8230731320
B             9.0653726478       -0.0004271736        5.4320676652
B             8.9387647666        0.1263815454        8.9387647666
B             9.0654067414        3.6299350843        1.8147250828
B             9.0608378968        3.6283288757        5.4366855992
B             9.0653587259        3.6330219721        9.0653587259
B             9.0457231326        7.2371676227        1.8276938545
B             9.0655042390        7.2502526693        5.4350857950
B             9.0691930558        7.2418703369        9.0691930558
B             1.8278885765        1.8278885765        0.0194561529
B             1.8202902677        1.8202902677        3.6342228566
B             1.8155014402        1.8155014402        7.2494743422
B             1.8147145935        5.4350218472       -0.0005364676
B             1.8148130575        5.4397819660        3.6251833520
B             1.8202591142        5.4308807530        7.2447216127
B             1.8230731320        9.0693383530       -0.0041595498
B             1.8147250828        9.0654067414        3.6299350843
B             1.8276938545        9.0457231326        7.2371676227
B             5.4350218472        1.8147145935       -0.0005364676
B             5.4397819660        1.8148130575        3.6251833520
B             5.4308807530        1.8202591142        7.2447216127
B             5.4367559492        5.4367559492        0.0042986463
B             5.4374886584        5.4374886584        3.6276344165
B             5.4398416396        5.4398416396        7.2503003420
B             5.4320676652        9.0653726478       -0.0004271736
B             5.4366855992        9.0608378968        3.6283288757
B             5.4350857950        9.0655042390        7.2502526693
B             9.0693383530        1.8230731320       -0.0041595498
B             9.0654067414        1.8147250828        3.6299350843
B             9.0457231326        1.8276938545        7.2371676227
B             9.0653726478        5.4320676652       -0.0004271736
B             9.0608378968        5.4366855992        3.6283288757
B             9.0655042390        5.4350857950        7.2502526693
B             8.9387647666        8.9387647666        0.1263815454
B             9.0653587259        9.0653587259        3.6330219721
B             9.0691930558        9.0691930558        7.2418703369
N             0.9072643800        0.9072643800        2.7182564092
N             0.9052674247        0.9052674247        6.3468583681
N             0.8811477555        0.8811477555        9.9685060770
N             0.9063244380        4.5333191863        2.7203149105
N             0.9063872195        4.5318728809        6.3444396766
N             0.9065082152        4.5326016495        9.9713883390
N             0.9053421354        8.1600321840        2.7178320847
N             0.9071976996        8.1579588865        6.3466434061
N             0.8814061209        8.1831085261        9.9743228126
N             4.5333191863        0.9063244380        2.7203149105
N             4.5318728809        0.9063872195        6.3444396766
N             4.5326016495        0.9065082152        9.9713883390
N             4.5325853819        4.5325853819        2.7182454290
N             4.5326734049        4.5326734049        6.3466957803
N             4.5326315965        4.5326315965        9.9714702692
N             4.5319023572        8.1589206844        2.7203831974
N             4.5333659918        8.1589518925        6.3444778163
N             4.5325832035        8.1586981774        9.9714150348
N             8.1600321840        0.9053421354        2.7178320847
N             8.1579588865        0.9071976996        6.3466434061
N             8.1831085261        0.8814061209        9.9743228126
N             8.1589206844        4.5319023572        2.7203831974
N             8.1589518925        4.5333659918        6.3444778163
N             8.1586981774        4.5325832035        9.9714150348
N             8.1580503213        8.1580503213        2.7181294395
N             8.1598858784        8.1598858784        6.3468462224
N             8.1833553507        8.1833553507        9.9686503904
N             0.9072643800        2.7182564092        0.9072643800
N             0.9063244380        2.7203149105        4.5333191863
N             0.9053421354        2.7178320847        8.1600321840
N             0.9052674247        6.3468583681        0.9052674247
N             0.9063872195        6.3444396766        4.5318728809
N             0.9071976996        6.3466434061        8.1579588865
N             0.8811477555        9.9685060770        0.8811477555
N             0.9065082152        9.9713883390        4.5326016495
N             0.8814061209        9.9743228126        8.1831085261
N             4.5333191863        2.7203149105        0.9063244380
N             4.5325853819        2.7182454290        4.5325853819
N             4.5319023572        2.7203831974        8.1589206844
N             4.5318728809        6.3444396766        0.9063872195
N             4.5326734049        6.3466957803        4.5326734049
N             4.5333659918        6.3444778163        8.1589518925
N             4.5326016495        9.9713883390        0.9065082152
N             4.5326315965        9.9714702692        4.5326315965
N             4.5325832035        9.9714150348        8.1586981774
N             8.1600321840        2.7178320847        0.9053421354
N             8.1589206844        2.7203831974        4.5319023572
N             8.1580503213        2.7181294395        8.1580503213
N             8.1579588865        6.3466434061        0.9071976996
N             8.1589518925        6.3444778163        4.5333659918
N             8.1598858784        6.3468462224        8.1598858784
N             8.1831085261        9.9743228126        0.8814061209
N             8.1586981774        9.9714150348        4.5325832035
N             8.1833553507        9.9686503904        8.1833553507
N             2.7182564092        0.9072643800        0.9072643800
N             2.7203149105        0.9063244380        4.5333191863
N             2.7178320847        0.9053421354        8.1600321840
N             2.7203149105        4.5333191863        0.9063244380
N             2.7182454290        4.5325853819        4.5325853819
N             2.7203831974        4.5319023572        8.1589206844
N             2.7178320847        8.1600321840        0.9053421354
N             2.7203831974        8.1589206844        4.5319023572
N             2.7181294395        8.1580503213        8.1580503213
N             6.3468583681        0.9052674247        0.9052674247
N             6.3444396766        0.9063872195        4.5318728809
N             6.3466434061        0.9071976996        8.1579588865
N             6.3444396766        4.5318728809        0.9063872195
N             6.3466957803        4.5326734049        4.5326734049
N             6.3444778163        4.5333659918        8.1589518925
N             6.3466434061        8.1579588865        0.9071976996
N             6.3444778163        8.1589518925        4.5333659918
N             6.3468462224        8.1598858784        8.1598858784
N             9.9685060770        0.8811477555        0.8811477555
N             9.9713883390        0.9065082152        4.5326016495
N             9.9743228126        0.8814061209        8.1831085261
N             9.9713883390        4.5326016495        0.9065082152
N             9.9714702692        4.5326315965        4.5326315965
N             9.9714150348        4.5325832035        8.1586981774
N             9.9743228126        8.1831085261        0.8814061209
N             9.9714150348        8.1586981774        4.5325832035
N             9.9686503904        8.1833553507        8.1833553507
N             2.7204190260        2.7204190260        2.7204190260
N             2.7181145147        2.7181145147        6.3467532649
N             2.7138914454        2.7138914454        9.9734081238
N             2.7181145147        6.3467532649        2.7181145147
N             2.7204944382        6.3444029825        6.3444029825
N             2.7139178438        6.3508730214        9.9694251554
N             2.7138914454        9.9734081238        2.7138914454
N             2.7139178438        9.9694251554        6.3508730214
N             2.7237415332        9.9714155450        9.9714155450
N             6.3467532649        2.7181145147        2.7181145147
N             6.3444029825        2.7204944382        6.3444029825
N             6.3508730214        2.7139178438        9.9694251554
N             6.3444029825        6.3444029825        2.7204944382
N             6.3466349967        6.3466349967        6.3466349967
N             6.3509160878        6.3509160878        9.9732770299
N             6.3508730214        9.9694251554        2.7139178438
N             6.3509160878        9.9732770299        6.3509160878
N             6.3410750696        9.9714582907        9.9714582907
N             9.9734081238        2.7138914454        2.7138914454
N             9.9694251554        2.7139178438        6.3508730214
N             9.9714155450        2.7237415332        9.9714155450
N             9.9694251554        6.3508730214        2.7139178438
N             9.9732770299        6.3509160878        6.3509160878
N             9.9714582907        6.3410750696        9.9714582907
N             9.9714155450        9.9714155450        2.7237415332
N             9.9714582907        9.9714582907        6.3410750696
K_POINTS gamma
CELL_PARAMETERS angstrom
     10.8780060000       0.0000000000       0.0000000000
      0.0000000000      10.8780060000       0.0000000000
      0.0000000000       0.0000000000      10.8780060000
