&CONTROL
  calculation = 'scf'
  etot_conv_thr =   2.1600000000d-03
  forc_conv_thr =   1.0000000000d-04
  outdir = './out/'
  prefix = 'aiida'
  pseudo_dir = './pseudo/'
  tprnfor = .true.
  !tstress = .true.
  verbosity = 'high'
  disk_io   = 'high'
  max_seconds = 14400
/
&SYSTEM
  degauss =   1.4699723600d-02
  ecutwfc =   10.0000000000d+01
  ibrav = 0
  nat = 215
  nosym = .false.
  ntyp = 2
  occupations = 'smearing'
  smearing = 'mv'
  tot_charge = 0
  nspin = 2
  starting_magnetization(1) =  0.5
  starting_magnetization(2) = -0.5
  input_dft = 'pbe0'
  exx_fraction = 0.23
  ecutfock = 120
  ace = .true.
  localization_thr = 0.001
/
&ELECTRONS
  conv_thr =   4.3200000000d-08
  electron_maxstep = 80
  mixing_beta =   4.0000000000d-01
  adaptive_thr = .True.
  conv_thr_init = 1.D-3 
  conv_thr_multi = 1.D-2
/
&IONS
/
ATOMIC_SPECIES
B      10.811 B_ONCV_PBE-1.2.upf
N      14.0067 N_ONCV_PBE-1.2.upf
ATOMIC_POSITIONS (angstrom)
B             0.0037872885        0.0037872885       -0.0029827693
B             0.0069327992        0.0069327992        7.2455862499
B            -0.0016988624        3.6274125837       -0.0014094164
B             0.0037873460        3.6289859264        3.6222158686
B             0.0039456389        3.6310260852        7.2492889834
B             0.0039456964        7.2547166922       -0.0050229281
B             0.0069327417        7.2584194257        3.6190703579
B             0.0046912655        7.2592579429        7.2447477429
B             3.6274125837       -0.0016988624       -0.0014094164
B             3.6289859264        0.0037873460        3.6222158686
B             3.6310260852        0.0039456389        7.2492889834
B             3.6249510501        3.6249510501        0.0010521645
B             3.6274126147        3.6274126147        3.6277020607
B             3.6301784649        3.6301784649        7.2518336758
B             3.6301784138        7.2521719589       -0.0041753142
B             3.6310261363        7.2547166513        3.6220575118
B             3.6310561470        7.2560255677        7.2479800357
B             7.2547166922        0.0039456964       -0.0050229281
B             7.2584194257        0.0069327417        3.6190703579
B             7.2592579429        0.0046912655        7.2447477429
B             7.2521719589        3.6301784138       -0.0041753142
B             7.2547166513        3.6310261363        3.6220575118
B             7.2560255677        3.6310561470        7.2479800357
B             7.2560256089        7.2560256089       -0.0050528912
B             7.2592579017        7.2592579017        3.6213119903
B             7.2572844321        7.2572844321        7.2467211515
B            -0.0702287457        1.8464571359        1.7795424931
B             0.0082019777        1.8216757734        5.4325650150
B             0.0034067424        1.8161783941        9.0616586522
B             0.0034068106        5.4423505333        1.8098212267
B             0.0044504192        5.4448188513        5.4348233134
B             0.0028035388        5.4428385255        9.0611706682
B             0.0082019095        9.0714441705        1.8043238474
B             0.0076157070        9.0793573305        5.4246518632
B             0.0044504874        9.0691858721        9.0591903342
B             3.6171729560        1.8075614447        1.8184381507
B             3.6381457224        1.8185835905        5.4437501650
B             3.6268419597        1.8153568869        9.0653286143
B             3.6268419095        5.4386806703        1.8106426671
B             3.6311455912        5.4439814258        5.4365910473
B             3.6293584651        5.4408381213        9.0631710401
B             3.6381457726        9.0602591196        1.8074159635
B             3.6308325287        9.0693792863        5.4346298751
B             3.6311456537        9.0674181550        9.0600277765
B             7.2542559181        1.8170907888        1.8089087430
B             7.2576088362        1.8184642829        5.4334926688
B             7.2533108232        1.8172750088        9.0596586783
B             7.2533108852        5.4443504735        1.8087245770
B             7.2571638544        5.4447974507        5.4348429540
B             7.2551826435        5.4433079635        9.0607012989
B             7.2576087742        9.0705164830        1.8075353029
B             7.2603482314        9.0716261385        5.4323831239
B             7.2571638037        9.0691662801        9.0592117834
B             1.8464571359       -0.0702287457        1.7795424931
B             1.8216757734        0.0082019777        5.4325650150
B             1.8161783941        0.0034067424        9.0616586522
B             1.8075614447        3.6171729560        1.8184381507
B             1.8185835905        3.6381457224        5.4437501650
B             1.8153568869        3.6268419597        9.0653286143
B             1.8170907888        7.2542559181        1.8089087430
B             1.8184642829        7.2576088362        5.4334926688
B             1.8172750088        7.2533108232        9.0596586783
B             5.4423505333        0.0034068106        1.8098212267
B             5.4448188513        0.0044504192        5.4348233134
B             5.4428385255        0.0028035388        9.0611706682
B             5.4386806703        3.6268419095        1.8106426671
B             5.4439814258        3.6311455912        5.4365910473
B             5.4408381213        3.6293584651        9.0631710401
B             5.4443504735        7.2533108852        1.8087245770
B             5.4447974507        7.2571638544        5.4348429540
B             5.4433079635        7.2551826435        9.0607012989
B             9.0714441705        0.0082019095        1.8043238474
B             9.0793573305        0.0076157070        5.4246518632
B             9.0691858721        0.0044504874        9.0591903342
B             9.0602591196        3.6381457726        1.8074159635
B             9.0693792863        3.6308325287        5.4346298751
B             9.0674181550        3.6311456537        9.0600277765
B             9.0705164830        7.2576087742        1.8075353029
B             9.0716261385        7.2603482314        5.4323831239
B             9.0691662801        7.2571638037        9.0592117834
B             1.8075614615        1.8075614615        0.0088303385
B             1.8464571191        1.8464571191        3.6962320402
B             1.8170907888        1.8170907888        7.2497496529
B             1.8153569273        5.4386806198       -0.0008387452
B             1.8161783677        5.4423505838        3.6225963537
B             1.8172749992        5.4443504735        7.2506947862
B             1.8185836169        9.0602590710       -0.0121426263
B             1.8216757330        9.0714442191        3.6178012368
B             1.8184642925        9.0705164830        7.2463967732
B             5.4386806198        1.8153569273       -0.0008387452
B             5.4423505838        1.8161783677        3.6225963537
B             5.4443504735        1.8172749992        7.2506947862
B             5.4408381718        5.4408381718       -0.0033553008
B             5.4428385255        5.4428385255        3.6231996250
B             5.4433079130        5.4433079130        7.2488230284
B             5.4439814258        9.0674181464       -0.0051424274
B             5.4448188008        9.0691858985        3.6215527451
B             5.4447975012        9.0691662579        7.2468418175
B             9.0602590710        1.8185836169       -0.0121426263
B             9.0714442191        1.8216757330        3.6178012368
B             9.0705164830        1.8184642925        7.2463967732
B             9.0674181464        5.4439814258       -0.0051424274
B             9.0691858985        5.4448188008        3.6215527451
B             9.0691662579        5.4447975012        7.2468418175
B             9.0693792599        9.0693792599       -0.0048292962
B             9.0793573391        9.0793573391        3.6183875193
B             9.0716261607        9.0716261607        7.2436573898
B             0.0333756615        0.0333756615        3.5926274147
N             0.9126015949        0.9126015949        6.3406297381
N             0.9083240956        0.9083240956        9.9700220591
N             0.9083240105        4.5339837212        2.7176790078
N             0.9106225093        4.5407873016        6.3462727523
N             0.9088909597        4.5333814332        9.9706241548
N             0.9126014845        8.1633794967        2.7134015823
N             0.9127105932        8.1683602649        6.3356488514
N             0.9106223188        8.1577366343        9.9632182356
N             4.5339837212        0.9083240105        2.7176790078
N             4.5407873016        0.9106225093        6.3462727523
N             4.5333814332        0.9088909597        9.9706241548
N             4.5333815881        4.5333815881        2.7171125082
N             4.5367908252        4.5367908252        6.3431273625
N             4.5338957653        4.5338957653        9.9701095814
N             4.5407873226        8.1577364395        2.7153809522
N             4.5381946592        8.1628912435        6.3411175457
N             4.5367910268        8.1608819554        9.9672148386
N             8.1633794967        0.9126014845        2.7134015823
N             8.1683602649        0.9127105932        6.3356488514
N             8.1577366343        0.9106223188        9.9632182356
N             8.1577364395        4.5407873226        2.7153809522
N             8.1628912435        4.5381946592        6.3411175457
N             8.1608819554        4.5367910268        9.9672148386
N             8.1683601802        8.1683601802        2.7132925098
N             8.1653997639        8.1653997639        6.3386094069
N             8.1628915342        8.1628915342        9.9658111941
N             0.9022938901        2.7061757418        0.9198273344
N             0.9110650720        2.7303364654        4.5385059232
N             0.9100339028        2.7229758485        8.1564107630
N             0.9100340132        6.3475984718        0.9030273287
N             0.9111787881        6.3503699106        4.5280941202
N             0.9107994153        6.3502569065        8.1537522098
N             0.9110651571        9.9654998571        0.8956666380
N             0.9238075761        9.9975133520        4.5064922360
N             0.9111785976        9.9759114170        8.1536394760
N             4.5287051460        2.7179217695        0.9080812488
N             4.5373019372        2.7231971580        4.5309200546
N             4.5354557534        2.7227765896        8.1579794568
N             4.5354557324        6.3460297350        0.9032268719
N             4.5377195420        6.3494938350        4.5292968300
N             4.5367373133        6.3487372861        8.1552715031
N             4.5373017823        9.9730856883        0.9028063099
N             4.5371003030        9.9754665493        4.5285387974
N             4.5377197436        9.9747088338        8.1545154829
N             8.1585824936        2.7247290175        0.9012740493
N             8.1628953108        2.7247659133        4.5279642324
N             8.1620189656        2.7240089120        8.1539171253
N             8.1620190503        6.3500919063        0.9019941910
N             8.1648349977        6.3526322373        4.5276896735
N             8.1630285081        6.3505820363        8.1534271345
N             8.1628955056        9.9760413258        0.9012373577
N             8.1704199820        9.9808594772        4.5231463882
N             8.1648352884        9.9763161798        8.1513768426
N             2.7061757418        0.9022938901        0.9198273344
N             2.7303364654        0.9110650720        4.5385059232
N             2.7229758485        0.9100339028        8.1564107630
N             2.7179217695        4.5287051460        0.9080812488
N             2.7231971580        4.5373019372        4.5309200546
N             2.7227765896        4.5354557534        8.1579794568
N             2.7247290175        8.1585824936        0.9012740493
N             2.7247659133        8.1628953108        4.5279642324
N             2.7240089120        8.1620189656        8.1539171253
N             6.3475984718        0.9100340132        0.9030273287
N             6.3503699106        0.9111787881        4.5280941202
N             6.3502569065        0.9107994153        8.1537522098
N             6.3460297350        4.5354557324        0.9032268719
N             6.3494938350        4.5377195420        4.5292968300
N             6.3487372861        4.5367373133        8.1552715031
N             6.3500919063        8.1620190503        0.9019941910
N             6.3526322373        8.1648349977        4.5276896735
N             6.3505820363        8.1630285081        8.1534271345
N             9.9654998571        0.9110651571        0.8956666380
N             9.9975133520        0.9238075761        4.5064922360
N             9.9759114170        0.9111785976        8.1536394760
N             9.9730856883        4.5373017823        0.9028063099
N             9.9754665493        4.5371003030        4.5285387974
N             9.9747088338        4.5377197436        8.1545154829
N             9.9760413258        8.1628955056        0.9012373577
N             9.9808594772        8.1704199820        4.5231463882
N             9.9763161798        8.1648352884        8.1513768426
N             2.7061758962        2.7061758962        2.7237093405
N             2.7247291181        2.7247291181        6.3454267778
N             2.7179217940        2.7179217940        9.9753006954
N             2.7229759491        6.3475985084        2.7159692646
N             2.7240091425        6.3500918944        6.3419900541
N             2.7227764645        6.3460295344        9.9685499324
N             2.7303364899        9.9654999182        2.7149379708
N             2.7247657882        9.9760414534        6.3411136804
N             2.7231967731        9.9730856951        9.9667038125
N             6.3475985084        2.7229759491        2.7159692646
N             6.3500918944        2.7240091425        6.3419900541
N             6.3460295344        2.7227764645        9.9685499324
N             6.3502568946        6.3502568946        2.7152039182
N             6.3505820583        6.3505820583        6.3409806847
N             6.3487374986        6.3487374986        9.9672682459
N             6.3503697100        9.9759115446        2.7148245483
N             6.3526324498        9.9763158857        6.3391740040
N             6.3494937764        9.9747086994        9.9662859874
N             9.9654999182        2.7303364899        2.7149379708
N             9.9760414534        2.7247657882        6.3411136804
N             9.9730856951        2.7231967731        9.9667038125
N             9.9759115446        6.3503697100        2.7148245483
N             9.9763158857        6.3526324498        6.3391740040
N             9.9747086994        6.3494937764        9.9662859874
N             9.9975133588        9.9975133588        2.7021955069
N             9.9808593428        9.9808593428        6.3335892773
N             9.9754667823        9.9754667823        9.9669052767
K_POINTS gamma
CELL_PARAMETERS angstrom
     10.8780060000       0.0000000000       0.0000000000
      0.0000000000      10.8780060000       0.0000000000
      0.0000000000       0.0000000000      10.8780060000
