&CONTROL
  calculation = 'scf'
  etot_conv_thr =   2.1600000000d-03
  forc_conv_thr =   1.0000000000d-04
  outdir = './out/'
  prefix = 'aiida'
  pseudo_dir = './pseudo/'
  tprnfor = .true.
  !tstress = .true.
  verbosity = 'high'
  disk_io   = 'high'
  max_seconds = 14400
/
&SYSTEM
  degauss =   1.4699723600d-02
  ecutwfc =   10.0000000000d+01
  ibrav = 0
  nat = 215
  nosym = .false.
  ntyp = 2
  occupations = 'smearing'
  smearing = 'mv'
  tot_charge =  1
  nspin = 2
  starting_magnetization(1) =  0.5
  starting_magnetization(2) = -0.5
  input_dft = 'pbe0'
  exx_fraction = 0.23
  ecutfock = 120
  ace = .true.
  localization_thr = 0.001
/
&ELECTRONS
  conv_thr =   4.3200000000d-08
  electron_maxstep = 80
  mixing_beta =   4.0000000000d-01
  adaptive_thr = .True.
  conv_thr_init = 1.D-3 
  conv_thr_multi = 1.D-2
/
&IONS
/
ATOMIC_SPECIES
B      10.811 B_ONCV_PBE-1.2.upf
N      14.0067 N_ONCV_PBE-1.2.upf
ATOMIC_POSITIONS (angstrom)
B             0.0077563413        0.0077563413       -0.0070971383
B             0.0039973878        0.0039973878        7.2503526374
B            -0.0047667813        3.6381428632       -0.0121396959
B             0.0077563988        3.6331002954        3.6182468158
B             0.0047717865        3.6293956825        7.2474233296
B             0.0047718440        7.2565823460       -0.0033925254
B             0.0039973303        7.2536530382        3.6220057693
B             0.0027629980        7.2553046991        7.2487009867
B             3.6381428632       -0.0047667813       -0.0121396959
B             3.6331002954        0.0077563988        3.6182468158
B             3.6293956825        0.0047717865        7.2474233296
B             3.6286774802        3.6286774802       -0.0026742656
B             3.6381428942        3.6381428942        3.6307699796
B             3.6326952733        3.6326952733        7.2512374633
B             3.6326952222        7.2527681714       -0.0066921226
B             3.6293957336        7.2565823051        3.6212313642
B             3.6309541991        7.2567397783        7.2472658251
B             7.2565823460        0.0047718440       -0.0033925254
B             7.2536530382        0.0039973303        3.6220057693
B             7.2553046991        0.0027629980        7.2487009867
B             7.2527681714        3.6326952222       -0.0066921226
B             7.2565823051        3.6293957336        3.6212313642
B             7.2567397783        3.6309541991        7.2472658251
B             7.2567398195        7.2567398195       -0.0049509433
B             7.2553046579        7.2553046579        3.6232402578
B             7.2553231712        7.2553231712        7.2486824124
B            -0.0535489041        1.8748158523        1.7511837767
B             0.0078376074        1.8136900156        5.4375549558
B             0.0039103362        1.8174513864        9.0581996714
B             0.0039104044        5.4458095141        1.8085482344
B             0.0047120803        5.4429054787        5.4339812420
B             0.0027049477        5.4441680231        9.0598411706
B             0.0078375392        9.0664542297        1.8123096052
B            -0.0045576066        9.0612906834        5.4427185103
B             0.0047121485        9.0700279435        9.0611037068
B             3.6328800009        1.8134621036        1.8125374918
B             3.6381867971        1.8260480627        5.4427952888
B             3.6292574835        1.8167622966        9.0613503030
B             3.6292574333        5.4426589816        1.8092372574
B             3.6327007797        5.4465624276        5.4372736210
B             3.6308821178        5.4427013893        9.0613077721
B             3.6381868473        9.0612139958        1.7999514913
B             3.6289082783        9.0706874110        5.4333217504
B             3.6327008422        9.0667355813        9.0574467747
B             7.2535729296        1.8174857195        1.8085138123
B             7.2566778800        1.8168801692        5.4338678199
B             7.2551744281        1.8189389800        9.0598237536
B             7.2551744901        5.4441853982        1.8070606058
B             7.2566759509        5.4427995265        5.4353155777
B             7.2553727404        5.4440787951        9.0599304673
B             7.2566778180        9.0701413319        1.8091194166
B             7.2529036102        9.0667361395        5.4372731229
B             7.2566759002        9.0686936564        9.0612097076
B             1.8748158523       -0.0535489041        1.7511837767
B             1.8136900156        0.0078376074        5.4375549558
B             1.8174513864        0.0039103362        9.0581996714
B             1.8134621036        3.6328800009        1.8125374918
B             1.8260480627        3.6381867971        5.4427952888
B             1.8167622966        3.6292574835        9.0613503030
B             1.8174857195        7.2535729296        1.8085138123
B             1.8168801692        7.2566778800        5.4338678199
B             1.8189389800        7.2551744281        9.0598237536
B             5.4458095141        0.0039104044        1.8085482344
B             5.4429054787        0.0047120803        5.4339812420
B             5.4441680231        0.0027049477        9.0598411706
B             5.4426589816        3.6292574333        1.8092372574
B             5.4465624276        3.6327007797        5.4372736210
B             5.4427013893        3.6308821178        9.0613077721
B             5.4441853982        7.2551744901        1.8070606058
B             5.4427995265        7.2566759509        5.4353155777
B             5.4440787951        7.2553727404        9.0599304673
B             9.0664542297        0.0078375392        1.8123096052
B             9.0612906834       -0.0045576066        5.4427185103
B             9.0700279435        0.0047121485        9.0611037068
B             9.0612139958        3.6381868473        1.7999514913
B             9.0706874110        3.6289082783        5.4333217504
B             9.0667355813        3.6327008422        9.0574467747
B             9.0701413319        7.2566778180        1.8091194166
B             9.0667361395        7.2529036102        5.4372731229
B             9.0686936564        7.2566759002        9.0612097076
B             1.8134621204        1.8134621204       -0.0068767064
B             1.8748158355        1.8748158355        3.6795521986
B             1.8174857195        1.8174857195        7.2504326414
B             1.8167623370        5.4426589311       -0.0032542690
B             1.8174513600        5.4458095646        3.6220927599
B             1.8189389704        5.4441853982        7.2488311813
B             1.8260480891        9.0612139472       -0.0121837010
B             1.8136899752        9.0664542783        3.6181656071
B             1.8168801788        9.0701413319        7.2473277294
B             5.4426589311        1.8167623370       -0.0032542690
B             5.4458095646        1.8174513600        3.6220927599
B             5.4441853982        1.8189389704        7.2488311813
B             5.4427014398        5.4427014398       -0.0048789535
B             5.4441680231        5.4441680231        3.6232982161
B             5.4440787446        5.4440787446        7.2486329315
B             5.4465624276        9.0667355727       -0.0066976159
B             5.4429054282        9.0700279699        3.6212910840
B             5.4427995770        9.0686936342        7.2473297210
B             9.0612139472        1.8260480891       -0.0121837010
B             9.0664542783        1.8136899752        3.6181656071
B             9.0701413319        1.8168801788        7.2473277294
B             9.0667355727        5.4465624276       -0.0066976159
B             9.0700279699        5.4429054282        3.6212910840
B             9.0686936342        5.4427995770        7.2473297210
B             9.0706873846        9.0706873846       -0.0029050458
B             9.0612906920        9.0612906920        3.6305608329
B             9.0667361617        9.0667361617        7.2511020110
B            -0.0536331743       -0.0536331743        3.6796362505
N             0.9107597205        0.9107597205        6.3399389835
N             0.9106830962        0.9106830962        9.9685218533
N             0.9106830111        4.5354839270        2.7153200072
N             0.9114144821        4.5344721517        6.3390083025
N             0.9101762699        4.5343851984        9.9696203896
N             0.9107596101        8.1640702513        2.7152434567
N             0.9102586295        8.1651064405        6.3389026758
N             0.9114142916        8.1650010841        9.9695333855
N             4.5354839270        0.9106830111        2.7153200072
N             4.5344721517        0.9114144821        6.3390083025
N             4.5343851984        0.9101762699        9.9696203896
N             4.5343853533        4.5343853533        2.7158271980
N             4.5370621725        4.5370621725        6.3416162702
N             4.5350695074        4.5350695074        9.9689358393
N             4.5344721727        8.1650008893        2.7145889794
N             4.5351937880        8.1644524651        6.3395563241
N             4.5370623741        8.1623930477        9.9669434913
N             8.1640702513        0.9107596101        2.7152434567
N             8.1651064405        0.9102586295        6.3389026758
N             8.1650010841        0.9114142916        9.9695333855
N             8.1650008893        4.5344721727        2.7145889794
N             8.1644524651        4.5351937880        6.3395563241
N             8.1623930477        4.5370623741        9.9669434913
N             8.1651063558        8.1651063558        2.7157444735
N             8.1623949033        8.1623949033        6.3416142675
N             8.1644527558        8.1644527558        9.9688120653
N             0.9099470271        2.7102844517        0.9157186245
N             0.9114427027        2.7103957526        4.5150659617
N             0.9108823590        2.7228294113        8.1544685347
N             0.9108824694        6.3495407001        0.9031737659
N             0.9109165289        6.3496621334        4.5276520225
N             0.9109864606        6.3496040298        8.1544050865
N             0.9114427878        9.9889398186        0.9156073508
N             0.9104396415        9.9889910014        4.5150145866
N             0.9109163384        9.9763535147        8.1543472532
N             4.5318578887        2.7201050502        0.9058979681
N             4.5363381204        2.7238501545        4.5287285515
N             4.5359099342        2.7231358629        8.1556843876
N             4.5359099132        6.3483248042        0.9028675986
N             4.5360099659        6.3507420477        4.5278297998
N             4.5365039728        6.3496142149        8.1543945743
N             4.5363379655        9.9752771914        0.9021533134
N             4.5322838487        9.9789353766        4.5250699701
N             4.5360101675        9.9761758640        8.1532672702
N             8.1633780920        2.7238660186        0.9021370482
N             8.1676548107        2.7203466932        4.5249023807
N             8.1637769293        2.7231857070        8.1531874799
N             8.1637770140        6.3508215517        0.9028173960
N             8.1637548651        6.3485243793        4.5278009404
N             8.1633215764        6.3496033936        8.1544057772
N             8.1676550055        9.9791031775        0.9056565778
N             8.1634545924        9.9753663309        4.5286395345
N             8.1637551558        9.9762049129        8.1554847006
N             2.7102844517        0.9099470271        0.9157186245
N             2.7103957526        0.9114427027        4.5150659617
N             2.7228294113        0.9108823590        8.1544685347
N             2.7201050502        4.5318578887        0.9058979681
N             2.7238501545        4.5363381204        4.5287285515
N             2.7231358629        4.5359099342        8.1556843876
N             2.7238660186        8.1633780920        0.9021370482
N             2.7203466932        8.1676548107        4.5249023807
N             2.7231857070        8.1637769293        8.1531874799
N             6.3495407001        0.9108824694        0.9031737659
N             6.3496621334        0.9109165289        4.5276520225
N             6.3496040298        0.9109864606        8.1544050865
N             6.3483248042        4.5359099132        0.9028675986
N             6.3507420477        4.5360099659        4.5278297998
N             6.3496142149        4.5365039728        8.1543945743
N             6.3508215517        8.1637770140        0.9028173960
N             6.3485243793        8.1637548651        4.5278009404
N             6.3496033936        8.1633215764        8.1544057772
N             9.9889398186        0.9114427878        0.9156073508
N             9.9889910014        0.9104396415        4.5150145866
N             9.9763535147        0.9109163384        8.1543472532
N             9.9752771914        4.5363379655        0.9021533134
N             9.9789353766        4.5322838487        4.5250699701
N             9.9761758640        4.5360101675        8.1532672702
N             9.9791031775        8.1676550055        0.9056565778
N             9.9753663309        8.1634545924        4.5286395345
N             9.9762049129        8.1637551558        8.1554847006
N             2.7102846061        2.7102846061        2.7160562035
N             2.7238661192        2.7238661192        6.3406311794
N             2.7201050747        2.7201050747        9.9721479527
N             2.7228295119        6.3495407367        2.7151208084
N             2.7231859375        6.3508215398        6.3402320904
N             2.7231357378        6.3483246036        9.9680957516
N             2.7103957771        9.9889398797        2.7145603401
N             2.7203465681        9.9791033051        6.3363541805
N             2.7238497696        9.9752771982        9.9676676293
N             6.3495407367        2.7228295119        2.7151208084
N             6.3508215398        2.7231859375        6.3402320904
N             6.3483246036        2.7231357378        9.9680957516
N             6.3496040179        6.3496040179        2.7150168729
N             6.3496034156        6.3496034156        6.3406876164
N             6.3496144274        6.3496144274        9.9675015864
N             6.3496619328        9.9763536423        2.7150868075
N             6.3485245918        9.9762046188        6.3402541366
N             6.3507419891        9.9761757296        9.9679955635
N             9.9889398797        2.7103957771        2.7145603401
N             9.9791033051        2.7203465681        6.3363541805
N             9.9752771982        2.7238497696        9.9676676293
N             9.9763536423        6.3496619328        2.7150868075
N             9.9762046188        6.3485245918        6.3402541366
N             9.9761757296        6.3507419891        9.9679955635
N             9.9889910082        9.9889910082        2.7155634415
N             9.9753661965        9.9753661965        6.3405546669
N             9.9789356096        9.9789356096        9.9717217310
K_POINTS gamma
CELL_PARAMETERS angstrom
     10.8780060000       0.0000000000       0.0000000000
      0.0000000000      10.8780060000       0.0000000000
      0.0000000000       0.0000000000      10.8780060000
