&CONTROL
  calculation = 'scf'
  etot_conv_thr =   2.1600000000d-03
  forc_conv_thr =   1.0000000000d-04
  outdir = './out/'
  prefix = 'aiida'
  pseudo_dir = './pseudo/'
  tprnfor = .true.
  !tstress = .true.
  verbosity = 'high'
  disk_io   = 'high'
  max_seconds = 14400
/
&SYSTEM
  degauss =   1.4699723600d-02
  ecutwfc =   10.0000000000d+01
  ibrav = 0
  nat = 217
  nosym = .false.
  ntyp = 2
  occupations = 'smearing'
  smearing = 'mv'
  tot_charge = 2
  nspin = 2
  starting_magnetization(1) =  0.5
  starting_magnetization(2) = -0.5
  input_dft = 'pbe0'
  exx_fraction = 0.23
  ecutfock = 120
  ace = .true.
  localization_thr = 0.001
/
&ELECTRONS
  conv_thr =   4.3200000000d-08
  electron_maxstep = 80
  mixing_beta =   4.0000000000d-01
  adaptive_thr = .True.
  conv_thr_init = 1.D-3 
  conv_thr_multi = 1.D-2
/
&IONS
/
ATOMIC_SPECIES
B      10.811 B_ONCV_PBE-1.2.upf
N      14.0067 N_ONCV_PBE-1.2.upf
ATOMIC_POSITIONS (angstrom)
B            -0.1871033115        0.2409605323       -0.1871033115
B            -0.0242199990       -0.0423971972        3.6310664741
B            -0.0067344832        0.0023312535        7.2384894427
B            -0.0307645955        3.6664518404       -0.0307645955
B            -0.0001978058        3.6334891699        3.6245980463
B            -0.0094340654        3.6442588175        7.2275794787
B             0.0036584942        7.2487732311        0.0036584942
B            -0.0007196642        7.2257365891        3.6485328220
B            -0.0004045712        7.2540776813        7.2552322672
B             3.6310664741       -0.0423971972       -0.0242199990
B             3.6917800894       -0.0115469754        3.6917800894
B             3.6294669297       -0.0029970546        7.2475135266
B             3.6245980463        3.6334891699       -0.0001978058
B             3.6346570238        3.6325085394        3.6346570238
B             3.6253846682        3.6260835727        7.2502280815
B             3.6485328220        7.2257365891       -0.0007196642
B             3.6408671127        7.2279035940        3.6408671127
B             3.6310259614        7.2439827792        7.2562079886
B             7.2384894427        0.0023312535       -0.0067344832
B             7.2475135266       -0.0029970546        3.6294669297
B             7.2486805891        0.0030757153        7.2486805891
B             7.2275794787        3.6442588175       -0.0094340654
B             7.2502280815        3.6260835727        3.6253846682
B             7.2440261025        3.6330882609        7.2440261025
B             7.2552322672        7.2540776813       -0.0004045712
B             7.2562079886        7.2439827792        3.6310259614
B             7.2543730496        7.2540425596        7.2543730496
B            -0.0777033786        1.8958489625        1.7645350680
B            -0.0020111591        1.8074444746        5.4298648949
B            -0.0442791925        1.8800394679        8.9834784529
B            -0.0041161040        5.4417711552        1.8122147993
B            -0.0011458513        5.4371178398        5.4404528725
B            -0.0075964162        5.4511043324        9.0546924027
B             0.0049164292        9.0033075256        1.8729417449
B            -0.0057014672        9.0528169326        5.4468245506
B             0.0130756329        9.0737401334        9.0679350746
B             3.6323195122        1.8298032050        1.8451114564
B             3.6319864521        1.8166393952        5.4448880159
B             3.6242895796        1.8087796425        9.0550069558
B             3.6335350107        5.4323515373        1.8162435333
B             3.6305609517        5.4325732021        5.4457481598
B             3.6272863957        5.4373505786        9.0628786346
B             3.6929063139        8.9985948322        1.8254012795
B             3.6405734622        9.0521478669        5.4607566741
B             3.6308533509        9.0516179345        9.0542335823
B             7.2367143659        1.8181542231        1.8094330526
B             7.2485546410        1.8154456199        5.4346863841
B             7.2290540240        1.8240387047        9.0480025603
B             7.2503550309        5.4383586073        1.8126686590
B             7.2524531214        5.4387209652        5.4396665385
B             7.2459809415        5.4479331434        9.0598477266
B             7.2488796964        9.0575741264        1.8147347637
B             7.2568971418        9.0610746841        5.4458740812
B             7.2540770402        9.0670396790        9.0662673014
B             2.0400640109       -0.1923446054        2.0400640109
B             1.8131512221       -0.0074582612        5.4442260200
B             1.8099769780       -0.0027622557        9.0273763686
B             1.8110696010        3.6462428509        1.8110696010
B             1.8167049234        3.6253930335        5.4362765846
B             1.8016554244        3.6480208213        9.0427388247
B             1.8273890168        7.2213739979        1.8273890168
B             1.8167225926        7.2314234844        5.4581188442
B             1.8184176352        7.2464374855        9.0633053466
B             5.4442260200       -0.0074582612        1.8131512221
B             5.4565218500       -0.0022284351        5.4565218500
B             5.4355634529       -0.0051747241        9.0599464543
B             5.4362765846        3.6253930335        1.8167049234
B             5.4404726569        3.6269106889        5.4404726569
B             5.4315761211        3.6284807661        9.0611675307
B             5.4581188442        7.2314234844        1.8167225926
B             5.4462631887        7.2454281294        5.4462631887
B             5.4437107123        7.2496313823        9.0631535556
B             9.0273763686       -0.0027622557        1.8099769780
B             9.0599464543       -0.0051747241        5.4355634529
B             9.0364165347        0.0224024066        9.0364165347
B             9.0427388247        3.6480208213        1.8016554244
B             9.0611675307        3.6284807661        5.4315761211
B             9.0415745277        3.6531281751        9.0415745277
B             9.0633053466        7.2464374855        1.8184176352
B             9.0631535556        7.2496313823        5.4437107123
B             9.0663760028        7.2597322648        9.0663760028
B             1.7645350680        1.8958489625       -0.0777033786
B             1.8451114564        1.8298032050        3.6323195122
B             1.8094330526        1.8181542231        7.2367143659
B             1.8122147993        5.4417711552       -0.0041161040
B             1.8162435333        5.4323515373        3.6335350107
B             1.8126686590        5.4383586073        7.2503550309
B             1.8729417449        9.0033075256        0.0049164292
B             1.8254012795        8.9985948322        3.6929063139
B             1.8147347637        9.0575741264        7.2488796964
B             5.4298648949        1.8074444746       -0.0020111591
B             5.4448880159        1.8166393952        3.6319864521
B             5.4346863841        1.8154456199        7.2485546410
B             5.4404528725        5.4371178398       -0.0011458513
B             5.4457481598        5.4325732021        3.6305609517
B             5.4396665385        5.4387209652        7.2524531214
B             5.4468245506        9.0528169326       -0.0057014672
B             5.4607566741        9.0521478669        3.6405734622
B             5.4458740812        9.0610746841        7.2568971418
B             8.9834784529        1.8800394679       -0.0442791925
B             9.0550069558        1.8087796425        3.6242895796
B             9.0480025603        1.8240387047        7.2290540240
B             9.0546924027        5.4511043324       -0.0075964162
B             9.0628786346        5.4373505786        3.6272863957
B             9.0598477266        5.4479331434        7.2459809415
B             9.0679350746        9.0737401334        0.0130756329
B             9.0542335823        9.0516179345        3.6308533509
B             9.0662673014        9.0670396790        7.2540770402
N             0.9082236200        0.8358853151        2.6619436516
N             0.9048901341        0.9046161149        6.3373220520
N             0.8792560589        0.9856843650        9.8668399112
N             0.9055375911        4.5299660723        2.7161859581
N             0.9049117535        4.5324672939        6.3349779774
N             0.8988009598        4.5425775275        9.9605342369
N             0.9189468347        8.1171539842        2.7607134323
N             0.9071268027        8.1544411210        6.3488256156
N             0.9150223732        8.1630251874        9.9870465302
N             4.5288886131        0.8983178095        2.7227299982
N             4.5320961676        0.9060643738        6.3453910447
N             4.5156449761        0.8983742200        9.9770602059
N             4.5326395979        4.5252796279        2.7206582283
N             4.5321640059        4.5285779778        6.3465926532
N             4.5280922469        4.5296651856        9.9722064262
N             4.5638626236        8.1278156826        2.7332088142
N             4.5398239591        8.1522875087        6.3552037232
N             4.5351215117        8.1534123947        9.9702196561
N             8.1516584169        0.9070840754        2.7153079857
N             8.1541584682        0.9086073489        6.3347590749
N             8.1335100275        0.9222353640        9.9547337803
N             8.1553743704        4.5330411883        2.7170458438
N             8.1565638119        4.5348021250        6.3398693237
N             8.1454633658        4.5449151823        9.9638236146
N             8.1586595155        8.1548538977        2.7195082355
N             8.1626473213        8.1606087715        6.3500447796
N             8.1685793638        8.1701134217        9.9770270889
N             0.8820795812        2.7477423787        0.8820795812
N             0.9079520801        2.7029570052        4.5116919582
N             0.8975289372        2.7463112765        8.1266226033
N             0.9101103416        6.3415617480        0.9101103416
N             0.9084283959        6.3313543003        4.5431983365
N             0.9061157284        6.3487591854        8.1586140150
N             1.0870586876        9.8092500912        1.0870586876
N             0.9109967433        9.9566492505        4.5331353357
N             0.9046413090        9.9744823294        8.1537810049
N             4.5116919582        2.7029570052        0.9079520801
N             4.5311015618        2.7168326953        4.5311015618
N             4.5249731815        2.7169285636        8.1585034103
N             4.5431983365        6.3313543003        0.9084283959
N             4.5396784493        6.3341582681        4.5396784493
N             4.5337359314        6.3427204936        8.1608414610
N             4.5331353357        9.9566492505        0.9109967433
N             4.5658786207        9.9631323919        4.5658786207
N             4.5300020065        9.9689102258        8.1589046741
N             8.1266226033        2.7463112765        0.8975289372
N             8.1585034103        2.7169285636        4.5249731815
N             8.1454983901        2.7277784611        8.1454983901
N             8.1586140150        6.3487591854        0.9061157284
N             8.1608414610        6.3427204936        4.5337359314
N             8.1587506859        6.3533500873        8.1587506859
N             8.1537810049        9.9744823294        0.9046413090
N             8.1589046741        9.9689102258        4.5300020065
N             8.1574863268        9.9785752766        8.1574863268
N             2.6619436516        0.8358853151        0.9082236200
N             2.7227299982        0.8983178095        4.5288886131
N             2.7153079857        0.9070840754        8.1516584169
N             2.7161859581        4.5299660723        0.9055375911
N             2.7206582283        4.5252796279        4.5326395979
N             2.7170458438        4.5330411883        8.1553743704
N             2.7607134323        8.1171539842        0.9189468347
N             2.7332088142        8.1278156826        4.5638626236
N             2.7195082355        8.1548538977        8.1586595155
N             6.3373220520        0.9046161149        0.9048901341
N             6.3453910447        0.9060643738        4.5320961676
N             6.3347590749        0.9086073489        8.1541584682
N             6.3349779774        4.5324672939        0.9049117535
N             6.3465926532        4.5285779778        4.5321640059
N             6.3398693237        4.5348021250        8.1565638119
N             6.3488256156        8.1544411210        0.9071268027
N             6.3552037232        8.1522875087        4.5398239591
N             6.3500447796        8.1606087715        8.1626473213
N             9.8668399112        0.9856843650        0.8792560589
N             9.9770602059        0.8983742200        4.5156449761
N             9.9547337803        0.9222353640        8.1335100275
N             9.9605342369        4.5425775275        0.8988009598
N             9.9722064262        4.5296651856        4.5280922469
N             9.9638236146        4.5449151823        8.1454633658
N             9.9870465302        8.1630251874        0.9150223732
N             9.9702196561        8.1534123947        4.5351215117
N             9.9770270889        8.1701134217        8.1685793638
N             2.7119836975        2.7144087891        2.7119836975
N             2.7180174026        2.7174555078        6.3399923728
N             2.7141706727        2.7278970579        9.9638887485
N             2.7285496973        6.3301491890        2.7285496973
N             2.7218261224        6.3354493169        6.3534234946
N             2.7222013407        6.3400239208        9.9715207717
N             2.8431459596        9.8788439380        2.8431459596
N             2.7211123755        9.9673981972        6.3458546072
N             2.7082117501        9.9626274220        9.9711392700
N             6.3399923728        2.7174555078        2.7180174026
N             6.3411264752        2.7200819193        6.3411264752
N             6.3285186507        2.7213623620        9.9681200425
N             6.3534234946        6.3354493169        2.7218261224
N             6.3480068078        6.3444386387        6.3480068078
N             6.3457437863        6.3487805951        9.9713583320
N             6.3458546072        9.9673981972        2.7211123755
N             6.3536197632        9.9711610986        6.3536197632
N             6.3423557560        9.9716923944        9.9705688574
N             9.9638887485        2.7278970579        2.7141706727
N             9.9681200425        2.7213623620        6.3285186507
N             9.9433477657        2.7522080743        9.9433477657
N             9.9715207717        6.3400239208        2.7222013407
N             9.9713583321        6.3487805951        6.3457437863
N             9.9713707300        6.3532291743        9.9713707300
N             9.9711392700        9.9626274220        2.7082117501
N             9.9705688574        9.9716923944        6.3423557561
N             9.9768341951       10.0045604741        9.9768341951
B             1.0010000848        0.3580712231        1.0010000848
K_POINTS gamma
CELL_PARAMETERS angstrom
     10.8780060000       0.0000000000       0.0000000000
      0.0000000000      10.8780060000       0.0000000000
      0.0000000000       0.0000000000      10.8780060000
