&CONTROL
    calculation = 'scf',
    etot_conv_thr =   1.0000000000d-03
    forc_conv_thr =   1.0000000000d-04
  outdir = './out/'
  prefix = 'aiida'
  pseudo_dir = './pseudo/'
    verbosity='high'
    tprnfor=.False.
    tstress=.False.
    wf_collect=.TRUE.
    verbosity = 'high'
    restart_mode = 'restart'
    disk_io = 'high'
/
&SYSTEM
  degauss =   1.4699723600d-02
  ecutwfc =   10.0000000000d+01
  ibrav = 0
  nat = 216
  nosym = .false.
  ntyp = 2
  occupations = 'smearing'
  smearing = 'mv'
  tot_charge = 0
  nspin = 2
  starting_magnetization(1) =  0.5
  starting_magnetization(2) = -0.5
  input_dft = 'pbe0'
  exx_fraction = 0.23
  ecutfock = 120
  ace = .true.
  localization_thr = 0.001
/
&ELECTRONS
    conv_thr=1.0D-8
    adaptive_thr = .False.
    conv_thr_init = 1.D-3 
    conv_thr_multi = 1.D-2
    electron_maxstep= 500
    mixing_mode = 'plain'
    mixing_beta = 0.6
    diagonalization = 'david'
    diago_full_acc = .TRUE.
    startingpot = 'file'
    startingwfc = 'file'
/
&IONS
/
ATOMIC_SPECIES
B      10.811 B_ONCV_PBE-1.2.upf
N      14.0067 N_ONCV_PBE-1.2.upf
ATOMIC_POSITIONS (angstrom)
N             0.0000000000        0.0000000000        0.0000000000
B             0.0000000000        0.0000000000        3.6269265587
B            -0.0000000000        0.0000000000        7.2510794413
B             0.0000000000        3.6269265587       -0.0000000000
B            -0.0011788675        3.6338700809        3.6338700809
B             0.0011788675        3.6338700809        7.2441359191
B            -0.0000000000        7.2510794413       -0.0000000000
B             0.0011788675        7.2441359191        3.6338700809
B            -0.0011788675        7.2441359191        7.2441359191
B             3.6269265587       -0.0000000000       -0.0000000000
B             3.6338700809       -0.0011788675        3.6338700809
B             3.6338700809        0.0011788675        7.2441359191
B             3.6338700809        3.6338700809       -0.0011788675
B             3.6261356887        3.6261356887        3.6261356887
B             3.6280991806        3.6280991806        7.2499068194
B             3.6338700809        7.2441359191        0.0011788675
B             3.6280991806        7.2499068194        3.6280991806
B             3.6261356887        7.2518703113        7.2518703113
B             7.2510794413       -0.0000000000       -0.0000000000
B             7.2441359191        0.0011788675        3.6338700809
B             7.2441359191       -0.0011788675        7.2441359191
B             7.2441359191        3.6338700809        0.0011788675
B             7.2499068194        3.6280991806        3.6280991806
B             7.2518703113        3.6261356887        7.2518703113
B             7.2441359191        7.2441359191       -0.0011788675
B             7.2518703113        7.2518703113        3.6261356887
B             7.2499068194        7.2499068194        7.2499068194
B            -0.0066484869        1.8314397448        1.8314397448
B             0.0000000000        1.8140877805        5.4390030000
B             0.0066484869        1.8314397448        9.0465662552
B             0.0000000000        5.4390030000        1.8140877805
B             0.0000000000        5.4390030000        5.4390030000
B            -0.0000000000        5.4390030000        9.0639182195
B             0.0066484869        9.0465662552        1.8314397448
B             0.0000000000        9.0639182195        5.4390030000
B            -0.0066484869        9.0465662552        9.0465662552
B             3.6269690226        1.8133947259        1.8133947259
B             3.6276940472        1.8142738343        5.4375663312
B             3.6344412109        1.8179360995        9.0600699005
B             3.6276940472        5.4375663312        1.8142738343
B             3.6266259712        5.4390030000        5.4390030000
B             3.6276940472        5.4404396688        9.0637321657
B             3.6344412109        9.0600699005        1.8179360995
B             3.6276940472        9.0637321657        5.4404396688
B             3.6269690226        9.0646112741        9.0646112741
B             7.2435647891        1.8179360995        1.8179360995
B             7.2503119528        1.8142738343        5.4404396688
B             7.2510369774        1.8133947259        9.0646112741
B             7.2503119528        5.4404396688        1.8142738343
B             7.2513800288        5.4390030000        5.4390030000
B             7.2503119528        5.4375663312        9.0637321657
B             7.2510369774        9.0646112741        1.8133947259
B             7.2503119528        9.0637321657        5.4375663312
B             7.2435647891        9.0600699005        9.0600699005
B             1.8314397448       -0.0066484869        1.8314397448
B             1.8140877805        0.0000000000        5.4390030000
B             1.8314397448        0.0066484869        9.0465662552
B             1.8133947259        3.6269690226        1.8133947259
B             1.8142738343        3.6276940472        5.4375663312
B             1.8179360995        3.6344412109        9.0600699005
B             1.8179360995        7.2435647891        1.8179360995
B             1.8142738343        7.2503119528        5.4404396688
B             1.8133947259        7.2510369774        9.0646112741
B             5.4390030000        0.0000000000        1.8140877805
B             5.4390030000        0.0000000000        5.4390030000
B             5.4390030000       -0.0000000000        9.0639182195
B             5.4375663312        3.6276940472        1.8142738343
B             5.4390030000        3.6266259712        5.4390030000
B             5.4404396688        3.6276940472        9.0637321657
B             5.4404396688        7.2503119528        1.8142738343
B             5.4390030000        7.2513800288        5.4390030000
B             5.4375663312        7.2503119528        9.0637321657
B             9.0465662552        0.0066484869        1.8314397448
B             9.0639182195       -0.0000000000        5.4390030000
B             9.0465662552       -0.0066484869        9.0465662552
B             9.0600699005        3.6344412109        1.8179360995
B             9.0637321657        3.6276940472        5.4404396688
B             9.0646112741        3.6269690226        9.0646112741
B             9.0646112741        7.2510369774        1.8133947259
B             9.0637321657        7.2503119528        5.4375663312
B             9.0600699005        7.2435647891        9.0600699005
B             1.8314397448        1.8314397448       -0.0066484869
B             1.8133947259        1.8133947259        3.6269690226
B             1.8179360995        1.8179360995        7.2435647891
B             1.8140877805        5.4390030000       -0.0000000000
B             1.8142738343        5.4375663312        3.6276940472
B             1.8142738343        5.4404396688        7.2503119528
B             1.8314397448        9.0465662552        0.0066484869
B             1.8179360995        9.0600699005        3.6344412109
B             1.8133947259        9.0646112741        7.2510369774
B             5.4390030000        1.8140877805        0.0000000000
B             5.4375663312        1.8142738343        3.6276940472
B             5.4404396688        1.8142738343        7.2503119528
B             5.4390030000        5.4390030000        0.0000000000
B             5.4390030000        5.4390030000        3.6266259712
B             5.4390030000        5.4390030000        7.2513800288
B             5.4390030000        9.0639182195        0.0000000000
B             5.4404396688        9.0637321657        3.6276940472
B             5.4375663312        9.0637321657        7.2503119528
B             9.0465662552        1.8314397448        0.0066484869
B             9.0600699005        1.8179360995        3.6344412109
B             9.0646112741        1.8133947259        7.2510369774
B             9.0639182195        5.4390030000        0.0000000000
B             9.0637321657        5.4404396688        3.6276940472
B             9.0637321657        5.4375663312        7.2503119528
B             9.0465662552        9.0465662552       -0.0066484869
B             9.0646112741        9.0646112741        3.6269690226
B             9.0600699005        9.0600699005        7.2435647891
N             0.9058225330        0.9058225330        2.7198707562
N             0.9075513637        0.9075513637        6.3444244400
N             1.0096879054        1.0096879054        9.8683180946
N             0.9072056760        4.5338811524        2.7210048847
N             0.9073294320        4.5363841936        6.3416218064
N             0.9075513637        4.5335815600        9.9704546363
N             0.9097806116        8.1407225141        2.7372834859
N             0.9072056760        8.1570011153        6.3441248476
N             0.9058225330        8.1581352438        9.9721834670
N             4.5338811524        0.9072056760        2.7210048847
N             4.5363841936        0.9073294320        6.3416218064
N             4.5335815600        0.9075513637        9.9704546363
N             4.5325528277        4.5325528277        2.7204286521
N             4.5334218962        4.5334218962        6.3445841038
N             4.5363841936        4.5363841936        9.9706765680
N             4.5365006594        8.1555746812        2.7224313188
N             4.5325528277        8.1575773479        6.3454531723
N             4.5338811524        8.1570011153        9.9708003240
N             8.1407225141        0.9097806116        2.7372834859
N             8.1570011153        0.9072056760        6.3441248476
N             8.1581352438        0.9058225330        9.9721834670
N             8.1555746812        4.5365006594        2.7224313188
N             8.1575773479        4.5325528277        6.3454531723
N             8.1570011153        4.5338811524        9.9708003240
N             8.1584799335        8.1584799335        2.7195260665
N             8.1555746812        8.1555746812        6.3415053406
N             8.1407225141        8.1407225141        9.9682253884
N             0.9058225330        2.7198707562        0.9058225330
N             0.9072056760        2.7210048847        4.5338811524
N             0.9097806116        2.7372834859        8.1407225141
N             0.9075513637        6.3444244400        0.9075513637
N             0.9073294320        6.3416218064        4.5363841936
N             0.9072056760        6.3441248476        8.1570011153
N             1.0096879054        9.8683180946        1.0096879054
N             0.9075513637        9.9704546363        4.5335815600
N             0.9058225330        9.9721834670        8.1581352438
N             4.5338811524        2.7210048847        0.9072056760
N             4.5325528277        2.7204286521        4.5325528277
N             4.5365006594        2.7224313188        8.1555746812
N             4.5363841936        6.3416218064        0.9073294320
N             4.5334218962        6.3445841038        4.5334218962
N             4.5325528277        6.3454531723        8.1575773479
N             4.5335815600        9.9704546363        0.9075513637
N             4.5363841936        9.9706765680        4.5363841936
N             4.5338811524        9.9708003240        8.1570011153
N             8.1407225141        2.7372834859        0.9097806116
N             8.1555746812        2.7224313188        4.5365006594
N             8.1584799335        2.7195260665        8.1584799335
N             8.1570011153        6.3441248476        0.9072056760
N             8.1575773479        6.3454531723        4.5325528277
N             8.1555746812        6.3415053406        8.1555746812
N             8.1581352438        9.9721834670        0.9058225330
N             8.1570011153        9.9708003240        4.5338811524
N             8.1407225141        9.9682253884        8.1407225141
N             2.7198707562        0.9058225330        0.9058225330
N             2.7210048847        0.9072056760        4.5338811524
N             2.7372834859        0.9097806116        8.1407225141
N             2.7210048847        4.5338811524        0.9072056760
N             2.7204286521        4.5325528277        4.5325528277
N             2.7224313188        4.5365006594        8.1555746812
N             2.7372834859        8.1407225141        0.9097806116
N             2.7224313188        8.1555746812        4.5365006594
N             2.7195260665        8.1584799335        8.1584799335
N             6.3444244400        0.9075513637        0.9075513637
N             6.3416218064        0.9073294320        4.5363841936
N             6.3441248476        0.9072056760        8.1570011153
N             6.3416218064        4.5363841936        0.9073294320
N             6.3445841038        4.5334218962        4.5334218962
N             6.3454531723        4.5325528277        8.1575773479
N             6.3441248476        8.1570011153        0.9072056760
N             6.3454531723        8.1575773479        4.5325528277
N             6.3415053406        8.1555746812        8.1555746812
N             9.8683180946        1.0096879054        1.0096879054
N             9.9704546363        0.9075513637        4.5335815600
N             9.9721834670        0.9058225330        8.1581352438
N             9.9704546363        4.5335815600        0.9075513637
N             9.9706765680        4.5363841936        4.5363841936
N             9.9708003240        4.5338811524        8.1570011153
N             9.9721834670        8.1581352438        0.9058225330
N             9.9708003240        8.1570011153        4.5338811524
N             9.9682253884        8.1407225141        8.1407225141
N             2.7195260665        2.7195260665        2.7195260665
N             2.7224313188        2.7224313188        6.3415053406
N             2.7372834859        2.7372834859        9.9682253884
N             2.7224313188        6.3415053406        2.7224313188
N             2.7204286521        6.3454531723        6.3454531723
N             2.7210048847        6.3441248476        9.9708003240
N             2.7372834859        9.9682253884        2.7372834859
N             2.7210048847        9.9708003240        6.3441248476
N             2.7198707562        9.9721834670        9.9721834670
N             6.3415053406        2.7224313188        2.7224313188
N             6.3454531723        2.7204286521        6.3454531723
N             6.3441248476        2.7210048847        9.9708003240
N             6.3454531723        6.3454531723        2.7204286521
N             6.3445841038        6.3445841038        6.3445841038
N             6.3416218064        6.3416218064        9.9706765680
N             6.3441248476        9.9708003240        2.7210048847
N             6.3416218064        9.9706765680        6.3416218064
N             6.3444244400        9.9704546363        9.9704546363
N             9.9682253884        2.7372834859        2.7372834859
N             9.9708003240        2.7210048847        6.3441248476
N             9.9721834670        2.7198707562        9.9721834670
N             9.9708003240        6.3441248476        2.7210048847
N             9.9706765680        6.3416218064        6.3416218064
N             9.9704546363        6.3444244400        9.9704546363
N             9.9721834670        9.9721834670        2.7198707562
N             9.9704546363        9.9704546363        6.3444244400
N             9.8683180946        9.8683180946        9.8683180946
K_POINTS gamma
CELL_PARAMETERS angstrom
     10.8780060000       0.0000000000       0.0000000000
      0.0000000000      10.8780060000       0.0000000000
      0.0000000000       0.0000000000      10.8780060000
