&CONTROL
  calculation = 'scf'
  etot_conv_thr =   2.1600000000d-03
  forc_conv_thr =   1.0000000000d-04
  outdir = './out/'
  prefix = 'aiida'
  pseudo_dir = './pseudo/'
  tprnfor = .true.
  !tstress = .true.
  verbosity = 'high'
  disk_io   = 'high'
  max_seconds = 14400
  wf_collect=.TRUE.
/
&SYSTEM
  degauss =   1.4699723600d-02
  ecutwfc =   10.0000000000d+01
  ibrav = 0
  nat = 217
  nosym = .false.
  ntyp = 2
  occupations = 'smearing'
  smearing = 'mv'
  tot_charge = 0
  nspin = 2
  starting_magnetization(1) =  0.5
  starting_magnetization(2) = -0.5
  input_dft = 'pbe0'
  exx_fraction = 0.23
  ecutfock = 120
  ace = .true.
  localization_thr = 0.001
/
&ELECTRONS
  conv_thr =   4.3200000000d-08
  electron_maxstep = 80
  mixing_beta =   4.0000000000d-01
  adaptive_thr = .True.
  conv_thr_init = 1.D-3 
  conv_thr_multi = 1.D-2
/
&IONS
/
ATOMIC_SPECIES
B      10.811 B_ONCV_PBE-1.2.upf
N      14.0067 N_ONCV_PBE-1.2.upf
ATOMIC_POSITIONS (angstrom)
B            -0.1251561456        0.2232085479       -0.1251561456
B             0.0154175804        0.0131928113        3.6281410707
B            -0.0033217133        0.0076081747        7.2494945727
B            -0.0062288144        3.6395765042       -0.0062288144
B            -0.0036501765        3.6419371482        3.6385548218
B            -0.0022549919        3.6394892334        7.2389619443
B            -0.0188315102        7.2063975923       -0.0188315102
B            -0.0018830656        7.2102220242        3.6670983607
B            -0.0025683913        7.2520122890        7.2466909305
B             3.6281410707        0.0131928113        0.0154175804
B             3.6391322898        0.0058171883        3.6391322898
B             3.6253394372        0.0045871976        7.2545220284
B             3.6385548218        3.6419371482       -0.0036501765
B             3.6360604194        3.6387144627        3.6360604194
B             3.6300944060        3.6295776258        7.2506325564
B             3.6670983607        7.2102220242       -0.0018830656
B             3.6312238422        7.2531390000        3.6312238422
B             3.6312011966        7.2556485072        7.2490122719
B             7.2494945727        0.0076081747       -0.0033217133
B             7.2545220284        0.0045871976        3.6253394372
B             7.2483415559        0.0038918330        7.2483415559
B             7.2389619443        3.6394892334       -0.0022549919
B             7.2506325564        3.6295776258        3.6300944060
B             7.2493101989        3.6305332157        7.2493101989
B             7.2466909305        7.2520122890       -0.0025683913
B             7.2490122719        7.2556485072        3.6312011966
B             7.2500930156        7.2574791233        7.2500930156
B            -0.0136461289        1.8619700344        1.8265804070
B            -0.0006869602        1.8227865504        5.4425866652
B            -0.0061446456        1.8654978357        9.0207896989
B            -0.0055628557        5.4342202731        1.8185104262
B            -0.0014239610        5.4360063946        5.4495318327
B            -0.0053435482        5.4315959740        9.0509044196
B            -0.0571585952        8.8470826112        1.8703703283
B            -0.0006151571        9.0681891360        5.4391726091
B             0.0037736222        9.0646954497        9.0608549609
B             3.6698889675        1.8653409681        1.8192300430
B             3.6323468151        1.8190913738        5.4457490279
B             3.6277910701        1.8202835718        9.0631393067
B             3.6400078240        5.4315847239        1.8183749674
B             3.6310533773        5.4447974299        5.4426759746
B             3.6338237634        5.4361434118        9.0571102275
B             3.6301438239        9.0646308739        1.8093074883
B             3.6287251733        9.0693227289        5.4411831013
B             3.6221544341        9.0638724853        9.0689683713
B             7.2480946055        1.8227699127        1.8136953150
B             7.2516493170        1.8163114053        5.4392839367
B             7.2450665585        1.8191127537        9.0586610014
B             7.2411009134        5.4360672234        1.8143124024
B             7.2502851371        5.4434440047        5.4406629491
B             7.2482387161        5.4447819456        9.0599327821
B             7.2518279854        9.0682240404        1.8136061066
B             7.2529208930        9.0687494938        5.4380588219
B             7.2498301155        9.0692621433        9.0622809501
B             1.9378764893        0.2230046613        1.9378764893
B             1.8163741207        0.0075413557        5.4413990768
B             1.7977597346        0.0132220449        9.0630813813
B             1.8192843115        3.6396694794        1.8192843115
B             1.8152167919        3.6393708394        5.4516031706
B             1.8165972491        3.6420275518        9.0520896001
B             1.8319623357        7.2062277291        1.8319623357
B             1.8154265389        7.2520197699        5.4440101440
B             1.8148731182        7.2102418771        9.0237629458
B             5.4413990768        0.0075413557        1.8163741207
B             5.4425605301        0.0039258712        5.4425605301
B             5.4364990906        0.0045351981        9.0656261773
B             5.4516031706        3.6393708394        1.8152167919
B             5.4416188504        3.6305147969        5.4416188504
B             5.4401521445        3.6295271360        9.0608819481
B             5.4440101440        7.2520197699        1.8154265389
B             5.4409143230        7.2574565879        5.4409143230
B             5.4418959135        7.2555806085        9.0597666901
B             9.0630813813        0.0132220449        1.7977597346
B             9.0656261773        0.0045351981        5.4364990906
B             9.0517876608        0.0058783155        9.0517876608
B             9.0520896001        3.6420275518        1.8165972491
B             9.0608819481        3.6295271360        5.4401521445
B             9.0549503227        3.6386947002        9.0549503227
B             9.0237629458        7.2102418771        1.8148731182
B             9.0597666901        7.2555806085        5.4418959135
B             9.0599670221        7.2530944397        9.0599670221
B             1.8265804070        1.8619700344       -0.0136461289
B             1.8192300430        1.8653409681        3.6698889675
B             1.8136953150        1.8227699127        7.2480946055
B             1.8185104262        5.4342202731       -0.0055628557
B             1.8183749674        5.4315847239        3.6400078240
B             1.8143124024        5.4360672234        7.2411009134
B             1.8703703283        8.8470826112       -0.0571585952
B             1.8093074883        9.0646308739        3.6301438239
B             1.8136061066        9.0682240404        7.2518279854
B             5.4425866652        1.8227865504       -0.0006869602
B             5.4457490279        1.8190913738        3.6323468151
B             5.4392839367        1.8163114053        7.2516493170
B             5.4495318327        5.4360063946       -0.0014239610
B             5.4426759746        5.4447974299        3.6310533773
B             5.4406629491        5.4434440047        7.2502851371
B             5.4391726091        9.0681891360       -0.0006151571
B             5.4411831013        9.0693227289        3.6287251733
B             5.4380588219        9.0687494938        7.2529208930
B             9.0207896989        1.8654978357       -0.0061446456
B             9.0631393067        1.8202835718        3.6277910701
B             9.0586610014        1.8191127537        7.2450665585
B             9.0509044196        5.4315959740       -0.0053435482
B             9.0571102275        5.4361434118        3.6338237634
B             9.0599327821        5.4447819456        7.2482387161
B             9.0608549609        9.0646954497        0.0037736222
B             9.0689683713        9.0638724853        3.6221544341
B             9.0622809501        9.0692621433        7.2498301155
N             0.9122961658        1.0016664571        2.7934194517
N             0.9065762588        0.9130818760        6.3453242095
N             0.9007131718        1.0018650351        9.8973669037
N             0.9071234868        4.5370110696        2.7268829451
N             0.9065330176        4.5382012192        6.3451963335
N             0.9060361819        4.5368783838        9.9638604999
N             0.9048319611        8.0709481804        2.7917928047
N             0.9065593782        8.1620494482        6.3453608455
N             0.9085886975        8.0711551435        9.8990083678
N             4.5449856951        0.9202966485        2.7260840995
N             4.5351333451        0.9099970696        6.3491692649
N             4.5307635377        0.9110598598        9.9712103112
N             4.5436481222        4.5373072222        2.7267633599
N             4.5361341159        4.5371499543        6.3462679028
N             4.5413031241        4.5372985945        9.9654885075
N             4.5352244326        8.1615917190        2.7231332441
N             4.5348917872        8.1635471360        6.3458427052
N             4.5385713585        8.1557805108        9.9693030253
N             8.1603764276        0.9110385587        2.7196120694
N             8.1559778708        0.9099622871        6.3416132919
N             8.1458627398        0.9203927566        9.9648789607
N             8.1495674662        4.5375958595        2.7253061603
N             8.1549725689        4.5371703623        6.3444905720
N             8.1473391833        4.5373367073        9.9641196691
N             8.1526433437        8.1559407228        2.7214497106
N             8.1562406184        8.1635420499        6.3449983692
N             8.1559408013        8.1615498876        9.9677615883
N             0.9067624787        2.7394457542        0.9067624787
N             0.9079321596        2.7502956709        4.5579309340
N             0.9054291122        2.7505667245        8.1324376473
N             0.9065520089        6.3319546550        0.9065520089
N             0.9068145140        6.3255680854        4.5569767951
N             0.9061770392        6.3255933984        8.1337236075
N             0.9065933911        9.2846211613        0.9065933911
N             0.9088803022        9.9766261504        4.5322371550
N             0.9045212926        9.9766688952        8.1591400119
N             4.5579309340        2.7502956709        0.9079321596
N             4.5385735717        2.7250762410        4.5385735717
N             4.5346608349        2.7230318759        8.1564902868
N             4.5569767951        6.3255680854        0.9068145140
N             4.5369680495        6.3506071673        4.5369680495
N             4.5365985079        6.3492679306        8.1545904953
N             4.5322371550        9.9766261504        0.9088803022
N             4.5399736746        9.9772713360        4.5399736746
N             4.5273258893        9.9742050785        8.1639079591
N             8.1324376473        2.7505667245        0.9054291122
N             8.1564902868        2.7230318759        4.5346608349
N             8.1526849468        2.7248935667        8.1526849468
N             8.1337236075        6.3255933984        0.9061770392
N             8.1545904953        6.3492679306        4.5365985079
N             8.1543808943        6.3504658931        8.1543808943
N             8.1591400119        9.9766688952        0.9045212926
N             8.1639079591        9.9742050785        4.5273258893
N             8.1512428534        9.9770749374        8.1512428534
N             2.7934194517        1.0016664571        0.9122961658
N             2.7260840995        0.9202966485        4.5449856951
N             2.7196120694        0.9110385587        8.1603764276
N             2.7268829451        4.5370110696        0.9071234868
N             2.7267633599        4.5373072222        4.5436481222
N             2.7253061603        4.5375958595        8.1495674662
N             2.7917928047        8.0709481804        0.9048319611
N             2.7231332441        8.1615917190        4.5352244326
N             2.7214497106        8.1559407228        8.1526433437
N             6.3453242095        0.9130818760        0.9065762588
N             6.3491692649        0.9099970696        4.5351333451
N             6.3416132919        0.9099622871        8.1559778708
N             6.3451963335        4.5382012192        0.9065330176
N             6.3462679028        4.5371499543        4.5361341159
N             6.3444905720        4.5371703623        8.1549725689
N             6.3453608455        8.1620494482        0.9065593782
N             6.3458427052        8.1635471360        4.5348917872
N             6.3449983692        8.1635420499        8.1562406184
N             9.8973669037        1.0018650351        0.9007131718
N             9.9712103112        0.9110598598        4.5307635377
N             9.9648789607        0.9203927566        8.1458627398
N             9.9638604999        4.5368783838        0.9060361819
N             9.9654885075        4.5372985945        4.5413031241
N             9.9641196691        4.5373367073        8.1473391833
N             9.8990083678        8.0711551435        0.9085886975
N             9.9693030253        8.1557805108        4.5385713585
N             9.9677615883        8.1615498876        8.1559408013
N             2.7332288507        2.7486183755        2.7332288507
N             2.7243104284        2.7249904901        6.3483735670
N             2.7289937299        2.7454382018        9.9615367740
N             2.7323719404        6.3260025083        2.7323719404
N             2.7241647296        6.3495691937        6.3450547247
N             2.7314055237        6.3273263859        9.9594769566
N             2.7307536481        9.9926611672        2.7307536481
N             2.7198724167        9.9758222725        6.3469171806
N             2.6904667177        9.9642257207       10.0009661131
N             6.3483735670        2.7249904901        2.7243104284
N             6.3453425098        2.7228089280        6.3453425098
N             6.3420350877        2.7251536860        9.9663904143
N             6.3450547247        6.3495691937        2.7241647296
N             6.3453482640        6.3506874377        6.3453482640
N             6.3454360273        6.3495751365        9.9664898139
N             6.3469171806        9.9758222725        2.7198724167
N             6.3453227805        9.9756510744        6.3453227805
N             6.3438011613        9.9758201721        9.9708583422
N             9.9615367740        2.7454382018        2.7289937299
N             9.9663904143        2.7251536860        6.3420350877
N             9.9576469058        2.7484770333        9.9576469058
N             9.9594769566        6.3273263859        2.7314055237
N             9.9664898139        6.3495751365        6.3454360273
N             9.9587404771        6.3260731195        9.9587404771
N            10.0009661131        9.9642257207        2.6904667177
N             9.9708583422        9.9758201721        6.3438011613
N             9.9599129753        9.9927302163        9.9599129753
B             0.9062887402       -0.3104224835        0.9062887402
K_POINTS gamma
CELL_PARAMETERS angstrom
     10.8780060000       0.0000000000       0.0000000000
      0.0000000000      10.8780060000       0.0000000000
      0.0000000000       0.0000000000      10.8780060000
