&CONTROL
  calculation = 'scf'
  etot_conv_thr =   2.1600000000d-03
  forc_conv_thr =   1.0000000000d-04
  outdir = './out/'
  prefix = 'aiida'
  pseudo_dir = './pseudo/'
  tprnfor = .true.
  !tstress = .true.
  verbosity = 'high'
  disk_io   = 'high'
  max_seconds = 14400
/
&SYSTEM
  degauss =   1.4699723600d-02
  ecutwfc =   10.0000000000d+01
  ibrav = 0
  nat = 215
  nosym = .false.
  ntyp = 2
  occupations = 'smearing'
  smearing = 'mv'
  tot_charge = -1
  nspin = 2
  starting_magnetization(1) =  0.5
  starting_magnetization(2) = -0.5
  input_dft = 'pbe0'
  exx_fraction = 0.23
  ecutfock = 120
  ace = .true.
  localization_thr = 0.001
/
&ELECTRONS
  conv_thr =   4.3200000000d-08
  electron_maxstep = 80
  mixing_beta =   4.0000000000d-01
  adaptive_thr = .True.
  conv_thr_init = 1.D-3 
  conv_thr_multi = 1.D-2
/
&IONS
/
ATOMIC_SPECIES
B      10.811 B_ONCV_PBE-1.2.upf
N      14.0067 N_ONCV_PBE-1.2.upf
ATOMIC_POSITIONS (angstrom)
B             0.0000000000       -0.0000000000        3.6176507064
B             0.0000000000       -0.0000000000        7.2603552936
B             0.0000000000        3.6176507064       -0.0000000000
B            -0.0021357231        3.6274575338        3.6274575338
B             0.0021357231        3.6274575338        7.2505484662
B            -0.0000000000        7.2603552936       -0.0000000000
B             0.0021357231        7.2505484662        3.6274575338
B            -0.0021357231        7.2505484662        7.2505484662
B             3.6176507064        0.0000000000        0.0000000000
B             3.6274575338       -0.0021357231        3.6274575338
B             3.6274575338        0.0021357231        7.2505484662
B             3.6274575338        3.6274575338       -0.0021357231
B             3.6236295491        3.6236295491        3.6236295491
B             3.6269026122        3.6269026122        7.2511033878
B             3.6274575338        7.2505484662        0.0021357231
B             3.6269026122        7.2511033878        3.6269026122
B             3.6236295491        7.2543764509        7.2543764509
B             7.2603552936        0.0000000000        0.0000000000
B             7.2505484662        0.0021357231        3.6274575338
B             7.2505484662       -0.0021357231        7.2505484662
B             7.2505484662        3.6274575338        0.0021357231
B             7.2511033878        3.6269026122        3.6269026122
B             7.2543764509        3.6236295491        7.2543764509
B             7.2505484662        7.2505484662       -0.0021357231
B             7.2543764509        7.2543764509        3.6236295491
B             7.2511033878        7.2511033878        7.2511033878
B            -0.0112335284        1.7966717454        1.7966717454
B             0.0000000000        1.8116810114        5.4390030000
B             0.0112335284        1.7966717454        9.0813342546
B             0.0000000000        5.4390030000        1.8116810114
B             0.0000000000        5.4390030000        5.4390030000
B             0.0000000000        5.4390030000        9.0663249886
B             0.0112335284        9.0813342546        1.7966717454
B            -0.0000000000        9.0663249886        5.4390030000
B            -0.0112335284        9.0813342546        9.0813342546
B             3.6196089361        1.8077631729        1.8077631729
B             3.6255062358        1.8127696989        5.4372349363
B             3.6267460511        1.8156327358        9.0623732642
B             3.6255062358        5.4372349363        1.8127696989
B             3.6254893210        5.4390030000        5.4390030000
B             3.6255062358        5.4407710637        9.0652363011
B             3.6267460511        9.0623732642        1.8156327358
B             3.6255062358        9.0652363011        5.4407710637
B             3.6196089361        9.0702428271        9.0702428271
B             7.2512599489        1.8156327358        1.8156327358
B             7.2524997642        1.8127696989        5.4407710637
B             7.2583970639        1.8077631729        9.0702428271
B             7.2524997642        5.4407710637        1.8127696989
B             7.2525166790        5.4390030000        5.4390030000
B             7.2524997642        5.4372349363        9.0652363011
B             7.2583970639        9.0702428271        1.8077631729
B             7.2524997642        9.0652363011        5.4372349363
B             7.2512599489        9.0623732642        9.0623732642
B             1.7966717454       -0.0112335284        1.7966717454
B             1.8116810114       -0.0000000000        5.4390030000
B             1.7966717454        0.0112335284        9.0813342546
B             1.8077631729        3.6196089361        1.8077631729
B             1.8127696989        3.6255062358        5.4372349363
B             1.8156327358        3.6267460511        9.0623732642
B             1.8156327358        7.2512599489        1.8156327358
B             1.8127696989        7.2524997642        5.4407710637
B             1.8077631729        7.2583970639        9.0702428271
B             5.4390030000       -0.0000000000        1.8116810114
B             5.4390030000        0.0000000000        5.4390030000
B             5.4390030000        0.0000000000        9.0663249886
B             5.4372349363        3.6255062358        1.8127696989
B             5.4390030000        3.6254893210        5.4390030000
B             5.4407710637        3.6255062358        9.0652363011
B             5.4407710637        7.2524997642        1.8127696989
B             5.4390030000        7.2525166790        5.4390030000
B             5.4372349363        7.2524997642        9.0652363011
B             9.0813342546        0.0112335284        1.7966717454
B             9.0663249886        0.0000000000        5.4390030000
B             9.0813342546       -0.0112335284        9.0813342546
B             9.0623732642        3.6267460511        1.8156327358
B             9.0652363011        3.6255062358        5.4407710637
B             9.0702428271        3.6196089361        9.0702428271
B             9.0702428271        7.2583970639        1.8077631729
B             9.0652363011        7.2524997642        5.4372349363
B             9.0623732642        7.2512599489        9.0623732642
B             1.7966717454        1.7966717454       -0.0112335284
B             1.8077631729        1.8077631729        3.6196089361
B             1.8156327358        1.8156327358        7.2512599489
B             1.8116810114        5.4390030000       -0.0000000000
B             1.8127696989        5.4372349363        3.6255062358
B             1.8127696989        5.4407710637        7.2524997642
B             1.7966717454        9.0813342546        0.0112335284
B             1.8156327358        9.0623732642        3.6267460511
B             1.8077631729        9.0702428271        7.2583970639
B             5.4390030000        1.8116810114       -0.0000000000
B             5.4372349363        1.8127696989        3.6255062358
B             5.4407710637        1.8127696989        7.2524997642
B             5.4390030000        5.4390030000        0.0000000000
B             5.4390030000        5.4390030000        3.6254893210
B             5.4390030000        5.4390030000        7.2525166790
B             5.4390030000        9.0663249886       -0.0000000000
B             5.4407710637        9.0652363011        3.6255062358
B             5.4372349363        9.0652363011        7.2524997642
B             9.0813342546        1.7966717454        0.0112335284
B             9.0623732642        1.8156327358        3.6267460511
B             9.0702428271        1.8077631729        7.2583970639
B             9.0663249886        5.4390030000       -0.0000000000
B             9.0652363011        5.4407710637        3.6255062358
B             9.0652363011        5.4372349363        7.2524997642
B             9.0813342546        9.0813342546       -0.0112335284
B             9.0702428271        9.0702428271        3.6196089361
B             9.0623732642        9.0623732642        7.2512599489
N             0.9040435876        0.9040435876        2.7178340149
N             0.9074372861        0.9074372861        6.3450123616
N             0.9885626418        0.9885626418        9.8894433582
N             0.9065519424        4.5326622120        2.7197756795
N             0.9075795286        4.5355996636        6.3424063364
N             0.9074372861        4.5329936384        9.9705687139
N             0.9117670752        8.1437010289        2.7343049711
N             0.9065519424        8.1582303205        6.3453437880
N             0.9040435876        8.1601719851        9.9739624124
N             4.5326622120        0.9065519424        2.7197756795
N             4.5355996636        0.9075795286        6.3424063364
N             4.5329936384        0.9074372861        9.9705687139
N             4.5320193973        4.5320193973        2.7199333594
N             4.5334904700        4.5334904700        6.3445155300
N             4.5355996636        4.5355996636        9.9704264714
N             4.5367725051        8.1555749832        2.7224310168
N             4.5320193973        8.1580726406        6.3459866027
N             4.5326622120        8.1582303205        9.9714540576
N             8.1437010289        0.9117670752        2.7343049711
N             8.1582303205        0.9065519424        6.3453437880
N             8.1601719851        0.9040435876        9.9739624124
N             8.1555749832        4.5367725051        2.7224310168
N             8.1580726406        4.5320193973        6.3459866027
N             8.1582303205        4.5326622120        9.9714540576
N             8.1602774084        8.1602774084        2.7177285916
N             8.1555749832        8.1555749832        6.3412334949
N             8.1437010289        8.1437010289        9.9662389248
N             0.9040435876        2.7178340149        0.9040435876
N             0.9065519424        2.7197756795        4.5326622120
N             0.9117670752        2.7343049711        8.1437010289
N             0.9074372861        6.3450123616        0.9074372861
N             0.9075795286        6.3424063364        4.5355996636
N             0.9065519424        6.3453437880        8.1582303205
N             0.9885626418        9.8894433582        0.9885626418
N             0.9074372861        9.9705687139        4.5329936384
N             0.9040435876        9.9739624124        8.1601719851
N             4.5326622120        2.7197756795        0.9065519424
N             4.5320193973        2.7199333594        4.5320193973
N             4.5367725051        2.7224310168        8.1555749832
N             4.5355996636        6.3424063364        0.9075795286
N             4.5334904700        6.3445155300        4.5334904700
N             4.5320193973        6.3459866027        8.1580726406
N             4.5329936384        9.9705687139        0.9074372861
N             4.5355996636        9.9704264714        4.5355996636
N             4.5326622120        9.9714540576        8.1582303205
N             8.1437010289        2.7343049711        0.9117670752
N             8.1555749832        2.7224310168        4.5367725051
N             8.1602774084        2.7177285916        8.1602774084
N             8.1582303205        6.3453437880        0.9065519424
N             8.1580726406        6.3459866027        4.5320193973
N             8.1555749832        6.3412334949        8.1555749832
N             8.1601719851        9.9739624124        0.9040435876
N             8.1582303205        9.9714540576        4.5326622120
N             8.1437010289        9.9662389248        8.1437010289
N             2.7178340149        0.9040435876        0.9040435876
N             2.7197756795        0.9065519424        4.5326622120
N             2.7343049711        0.9117670752        8.1437010289
N             2.7197756795        4.5326622120        0.9065519424
N             2.7199333594        4.5320193973        4.5320193973
N             2.7224310168        4.5367725051        8.1555749832
N             2.7343049711        8.1437010289        0.9117670752
N             2.7224310168        8.1555749832        4.5367725051
N             2.7177285916        8.1602774084        8.1602774084
N             6.3450123616        0.9074372861        0.9074372861
N             6.3424063364        0.9075795286        4.5355996636
N             6.3453437880        0.9065519424        8.1582303205
N             6.3424063364        4.5355996636        0.9075795286
N             6.3445155300        4.5334904700        4.5334904700
N             6.3459866027        4.5320193973        8.1580726406
N             6.3453437880        8.1582303205        0.9065519424
N             6.3459866027        8.1580726406        4.5320193973
N             6.3412334949        8.1555749832        8.1555749832
N             9.8894433582        0.9885626418        0.9885626418
N             9.9705687139        0.9074372861        4.5329936384
N             9.9739624124        0.9040435876        8.1601719851
N             9.9705687139        4.5329936384        0.9074372861
N             9.9704264714        4.5355996636        4.5355996636
N             9.9714540576        4.5326622120        8.1582303205
N             9.9739624124        8.1601719851        0.9040435876
N             9.9714540576        8.1582303205        4.5326622120
N             9.9662389248        8.1437010289        8.1437010289
N             2.7177285916        2.7177285916        2.7177285916
N             2.7224310168        2.7224310168        6.3412334949
N             2.7343049711        2.7343049711        9.9662389248
N             2.7224310168        6.3412334949        2.7224310168
N             2.7199333594        6.3459866027        6.3459866027
N             2.7197756795        6.3453437880        9.9714540576
N             2.7343049711        9.9662389248        2.7343049711
N             2.7197756795        9.9714540576        6.3453437880
N             2.7178340149        9.9739624124        9.9739624124
N             6.3412334949        2.7224310168        2.7224310168
N             6.3459866027        2.7199333594        6.3459866027
N             6.3453437880        2.7197756795        9.9714540576
N             6.3459866027        6.3459866027        2.7199333594
N             6.3445155300        6.3445155300        6.3445155300
N             6.3424063364        6.3424063364        9.9704264714
N             6.3453437880        9.9714540576        2.7197756795
N             6.3424063364        9.9704264714        6.3424063364
N             6.3450123616        9.9705687139        9.9705687139
N             9.9662389248        2.7343049711        2.7343049711
N             9.9714540576        2.7197756795        6.3453437880
N             9.9739624124        2.7178340149        9.9739624124
N             9.9714540576        6.3453437880        2.7197756795
N             9.9704264714        6.3424063364        6.3424063364
N             9.9705687139        6.3450123616        9.9705687139
N             9.9739624124        9.9739624124        2.7178340149
N             9.9705687139        9.9705687139        6.3450123616
N             9.8894433582        9.8894433582        9.8894433582
K_POINTS gamma
CELL_PARAMETERS angstrom
     10.8780060000       0.0000000000       0.0000000000
      0.0000000000      10.8780060000       0.0000000000
      0.0000000000       0.0000000000      10.8780060000
