&CONTROL
  calculation = 'scf'
  etot_conv_thr =   2.1600000000d-03
  forc_conv_thr =   1.0000000000d-04
  outdir = './out/'
  prefix = 'aiida'
  pseudo_dir = './pseudo/'
  tprnfor = .true.
  !tstress = .true.
  verbosity = 'high'
  disk_io   = 'high'
  max_seconds = 14400
/
&SYSTEM
  degauss =   1.4699723600d-02
  ecutwfc =   10.0000000000d+01
  ibrav = 0
  nat = 215
  nosym = .false.
  ntyp = 2
  occupations = 'smearing'
  smearing = 'mv'
  tot_charge = -1
  nspin = 2
  starting_magnetization(1) =  0.5
  starting_magnetization(2) = -0.5
  input_dft = 'pbe0'
  exx_fraction = 0.23
  ecutfock = 120
  ace = .true.
  localization_thr = 0.001
/
&ELECTRONS
  conv_thr =   4.3200000000d-08
  electron_maxstep = 80
  mixing_beta =   4.0000000000d-01
  adaptive_thr = .True.
  conv_thr_init = 1.D-3 
  conv_thr_multi = 1.D-2
/
&IONS
/
ATOMIC_SPECIES
B      10.811 B_ONCV_PBE-1.2.upf
N      14.0067 N_ONCV_PBE-1.2.upf
ATOMIC_POSITIONS (angstrom)
B            -0.0029252369       -0.0029252369       -0.0038895036
B             0.0098048507        0.0098048507        7.2357727003
B            -0.0070067251        3.6133057405        0.0126974268
B            -0.0029251794        3.6298926607        3.6289283940
B            -0.0009155530        3.6335018903        7.2544451284
B            -0.0009154955        7.2495605472       -0.0074987332
B             0.0098047932        7.2682329753        3.6161983064
B             0.0087040442        7.2651553446        7.2388503412
B             3.6133057405       -0.0070067251        0.0126974268
B             3.6298926607       -0.0029251794        3.6289283940
B             3.6335018903       -0.0009155530        7.2544451284
B             3.6173332259        3.6173332259        0.0086699887
B             3.6133057715        3.6133057715        3.6330099234
B             3.6263613142        3.6263613142        7.2562850684
B             3.6263612631        7.2477205663       -0.0003581635
B             3.6335019414        7.2495605063        3.6269187037
B             3.6319717145        7.2531014559        7.2509041475
B             7.2495605472       -0.0009154955       -0.0074987332
B             7.2682329753        0.0098047932        3.6161983064
B             7.2651553446        0.0087040442        7.2388503412
B             7.2477205663        3.6263612631       -0.0003581635
B             7.2495605063        3.6335019414        3.6269187037
B             7.2531014559        3.6319717145        7.2509041475
B             7.2531014971        7.2531014971       -0.0059684587
B             7.2651553034        7.2651553034        3.6172992116
B             7.2611779819        7.2611779819        7.2428276017
B            -0.0870613299        1.7851764119        1.8408232171
B            -0.0088033699        1.8278799325        5.4309212208
B             0.0001426802        1.8133176467        9.0632682087
B             0.0001427484        5.4407409768        1.8126819741
B             0.0038322350        5.4483959513        5.4359974327
B             0.0002339009        5.4395079380        9.0645012557
B            -0.0088034381        9.0730879647        1.7981196883
B             0.0329858511        9.1174557991        5.3865533946
B             0.0038323032        9.0680117528        9.0556132342
B             3.5997899399        1.7955606573        1.8304389381
B             3.6379511095        1.8137846288        5.4481280780
B             3.6202486049        1.8105495959        9.0724890470
B             3.6202485547        5.4315202376        1.8154499581
B             3.6305991947        5.4413046795        5.4393751861
B             3.6259228083        5.4363231468        9.0676860146
B             3.6379511597        9.0558812066        1.8122149252
B             3.6346892082        9.0637202000        5.4402889614
B             3.6305992572        9.0646340162        9.0627045228
B             7.2558619746        1.8122835261        1.8137160057
B             7.2577944167        1.8218190260        5.4361442258
B             7.2493873332        1.8155547862        9.0615263395
B             7.2493873952        5.4424828123        1.8104447996
B             7.2577915206        5.4493949998        5.4349239171
B             7.2530984055        5.4424384691        9.0615707933
B             7.2577943547        9.0678649260        1.8041805598
B             7.2752421597        9.0816408703        5.4223683921
B             7.2577914699        9.0690853170        9.0546142343
B             1.7851764119       -0.0870613299        1.8408232171
B             1.8278799325       -0.0088033699        5.4309212208
B             1.8133176467        0.0001426802        9.0632682087
B             1.7955606573        3.5997899399        1.8304389381
B             1.8137846288        3.6379511095        5.4481280780
B             1.8105495959        3.6202486049        9.0724890470
B             1.8122835261        7.2558619746        1.8137160057
B             1.8218190260        7.2577944167        5.4361442258
B             1.8155547862        7.2493873332        9.0615263395
B             5.4407409768        0.0001427484        1.8126819741
B             5.4483959513        0.0038322350        5.4359974327
B             5.4395079380        0.0002339009        9.0645012557
B             5.4315202376        3.6202485547        1.8154499581
B             5.4413046795        3.6305991947        5.4393751861
B             5.4363231468        3.6259228083        9.0676860146
B             5.4424828123        7.2493873952        1.8104447996
B             5.4493949998        7.2577915206        5.4349239171
B             5.4424384691        7.2530984055        9.0615707933
B             9.0730879647       -0.0088034381        1.7981196883
B             9.1174557991        0.0329858511        5.3865533946
B             9.0680117528        0.0038323032        9.0556132342
B             9.0558812066        3.6379511597        1.8122149252
B             9.0637202000        3.6346892082        5.4402889614
B             9.0646340162        3.6305992572        9.0627045228
B             9.0678649260        7.2577943547        1.8041805598
B             9.0816408703        7.2752421597        5.4223683921
B             9.0690853170        7.2577914699        9.0546142343
B             1.7955606741        1.7955606741        0.0262133546
B             1.7851763951        1.7851763951        3.7130646244
B             1.8122835261        1.8122835261        7.2481435964
B             1.8105496363        5.4315201871        0.0057546096
B             1.8133176203        5.4407410273        3.6258604159
B             1.8155547766        5.4424828123        7.2546182762
B             1.8137846552        9.0558811580       -0.0119480134
B             1.8278798921        9.0730880133        3.6348065844
B             1.8218190356        9.0678649260        7.2462111927
B             5.4315201871        1.8105496363        0.0057546096
B             5.4407410273        1.8133176203        3.6258604159
B             5.4424828123        1.8155547766        7.2546182762
B             5.4363231973        5.4363231973        0.0000803560
B             5.4395079380        5.4395079380        3.6257692629
B             5.4424384186        5.4424384186        7.2509072664
B             5.4413046795        9.0646340076       -0.0045960309
B             5.4483959008        9.0680117792        3.6221709293
B             5.4493950503        9.0690852948        7.2462141513
B             9.0558811580        1.8137846552       -0.0119480134
B             9.0730880133        1.8278798921        3.6348065844
B             9.0678649260        1.8218190356        7.2462111927
B             9.0646340076        5.4413046795       -0.0045960309
B             9.0680117792        5.4483959008        3.6221709293
B             9.0690852948        5.4493950503        7.2462141513
B             9.0637201736        9.0637201736       -0.0086859757
B             9.1174558077        9.1174558077        3.5930173752
B             9.0816408925        9.0816408925        7.2287634615
B             0.4199049138        0.4199049138        3.2060981624
N             0.9133659098        0.9133659098        6.3423417323
N             0.9038630957        0.9038630957        9.9714283158
N             0.9038630106        4.5325774645        2.7221400077
N             0.9091829766        4.5439463151        6.3523028709
N             0.9051630493        4.5253177817        9.9786878063
N             0.9133657994        8.1616675025        2.7126372674
N             0.9193795629        8.1689780938        6.3350310225
N             0.9091827861        8.1517065157        9.9600592221
N             4.5325774645        0.9038630106        2.7221400077
N             4.5439463151        0.9091829766        6.3523028709
N             4.5253177817        0.9051630493        9.9786878063
N             4.5253179366        4.5253179366        2.7208404186
N             4.5355603229        4.5355603229        6.3475698088
N             4.5293096564        4.5293096564        9.9746956903
N             4.5439463361        8.1517063209        2.7168204849
N             4.5442649250        8.1590111206        6.3449976686
N             4.5355605245        8.1564395091        9.9684453409
N             8.1616675025        0.9133657994        2.7126372674
N             8.1689780938        0.9193795629        6.3350310225
N             8.1517065157        0.9091827861        9.9600592221
N             8.1517063209        4.5439463361        2.7168204849
N             8.1590111206        4.5442649250        6.3449976686
N             8.1564395091        4.5355605245        9.9684453409
N             8.1689780091        8.1689780091        2.7066235401
N             8.1712671909        8.1712671909        6.3327419799
N             8.1590114113        8.1590114113        9.9597409283
N             0.8881970548        2.6858057691        0.9401973071
N             0.9067457146        2.7463812904        4.5584352860
N             0.9074276386        2.7220810525        8.1606824644
N             0.9074277490        6.3433267704        0.9039221247
N             0.9118376627        6.3502349310        4.5299262536
N             0.9103811181        6.3476270976        8.1563820187
N             0.9067457997        9.9455704943        0.8796218130
N             0.9896396807        9.9880728975        4.5159326905
N             0.9118374722        9.9740792836        8.1537744556
N             4.5192309239        2.7111384068        0.9148646115
N             4.5358463329        2.7217921971        4.5356856239
N             4.5315399888        2.7202683687        8.1640662596
N             4.5315399678        6.3399429322        0.9057350928
N             4.5411116017        6.3452306797        4.5318939763
N             4.5363036606        6.3454439252        8.1585648640
N             4.5358461780        9.9683201190        0.9042112708
N             4.5421310105        9.9707922651        4.5332130816
N             4.5411118033        9.9721116875        8.1587786382
N             8.1532393741        2.7244692689        0.9015337979
N             8.1466676609        2.7396193198        4.5341735532
N             8.1567259458        2.7259818690        8.1584236940
N             8.1567260305        6.3455853376        0.9000212340
N             8.1667147310        6.3581736223        4.5265486058
N             8.1619545871        6.3520417748        8.1519673960
N             8.1466678557        9.9698320050        0.8863839512
N             8.1838253894        9.9922220916        4.5117837738
N             8.1667150217        9.9774572475        8.1458354576
N             2.6858057691        0.8881970548        0.9401973071
N             2.7463812904        0.9067457146        4.5584352860
N             2.7220810525        0.9074276386        8.1606824644
N             2.7111384068        4.5192309239        0.9148646115
N             2.7217921971        4.5358463329        4.5356856239
N             2.7202683687        4.5315399888        8.1640662596
N             2.7244692689        8.1532393741        0.9015337979
N             2.7396193198        8.1466676609        4.5341735532
N             2.7259818690        8.1567259458        8.1584236940
N             6.3433267704        0.9074277490        0.9039221247
N             6.3502349310        0.9118376627        4.5299262536
N             6.3476270976        0.9103811181        8.1563820187
N             6.3399429322        4.5315399678        0.9057350928
N             6.3452306797        4.5411116017        4.5318939763
N             6.3454439252        4.5363036606        8.1585648640
N             6.3455853376        8.1567260305        0.9000212340
N             6.3581736223        8.1667147310        4.5265486058
N             6.3520417748        8.1619545871        8.1519673960
N             9.9455704943        0.9067457997        0.8796218130
N             9.9880728975        0.9896396807        4.5159326905
N             9.9740792836        0.9118374722        8.1537744556
N             9.9683201190        4.5358461780        0.9042112708
N             9.9707922651        4.5421310105        4.5332130816
N             9.9721116875        4.5411118033        8.1587786382
N             9.9698320050        8.1466678557        0.8863839512
N             9.9922220916        8.1838253894        4.5117837738
N             9.9774572475        8.1667150217        8.1458354576
N             2.6858059235        2.6858059235        2.7378061758
N             2.7244693695        2.7244693695        6.3507698973
N             2.7111384313        2.7111384313        9.9847749175
N             2.7220811531        6.3433268070        2.7185755288
N             2.7259820995        6.3455853257        6.3472830739
N             2.7202682436        6.3399427316        9.9724656970
N             2.7463813149        9.9455705554        2.7192573282
N             2.7396191947        9.9698321326        6.3573413303
N             2.7217918122        9.9683201258        9.9681594168
N             6.3433268070        2.7220811531        2.7185755288
N             6.3455853257        2.7259820995        6.3472830739
N             6.3399427316        2.7202682436        9.9724656970
N             6.3476270857        6.3476270857        2.7156222154
N             6.3520417968        6.3520417968        6.3420546057
N             6.3454441377        6.3454441377        9.9677018986
N             6.3502347304        9.9740794112        2.7141656737
N             6.3581738348        9.9774569534        6.3372942707
N             6.3452306211        9.9721115531        9.9628939277
N             9.9455705554        2.7463813149        2.7192573282
N             9.9698321326        2.7396191947        6.3573413303
N             9.9683201258        2.7217918122        9.9681594168
N             9.9740794112        6.3502347304        2.7141656737
N             9.9774569534        6.3581738348        6.3372942707
N             9.9721115531        6.3452306211        9.9628939277
N             9.9880729043        9.9880729043        2.6363634023
N             9.9922219572        9.9922219572        6.3201838699
N             9.9707924981        9.9707924981        9.9618745692
K_POINTS gamma
CELL_PARAMETERS angstrom
     10.8780060000       0.0000000000       0.0000000000
      0.0000000000      10.8780060000       0.0000000000
      0.0000000000       0.0000000000      10.8780060000
