&CONTROL
  calculation = 'scf'
  etot_conv_thr =   2.1600000000d-03
  forc_conv_thr =   1.0000000000d-04
  outdir = './out/'
  prefix = 'aiida'
  pseudo_dir = './pseudo/'
  tprnfor = .true.
  !tstress = .true.
  verbosity = 'high'
  disk_io   = 'high'
  max_seconds = 14400
/
&SYSTEM
  degauss =   1.4699723600d-02
  ecutwfc =   10.0000000000d+01
  ibrav = 0
  nat = 217
  nosym = .false.
  ntyp = 2
  occupations = 'smearing'
  smearing = 'mv'
  tot_charge = -2
  nspin = 2
  starting_magnetization(1) =  0.5
  starting_magnetization(2) = -0.5
  input_dft = 'pbe0'
  exx_fraction = 0.23
  ecutfock = 120
  ace = .true.
  localization_thr = 0.001
/
&ELECTRONS
  conv_thr =   4.3200000000d-08
  electron_maxstep = 80
  mixing_beta =   4.0000000000d-01
  adaptive_thr = .True.
  conv_thr_init = 1.D-3 
  conv_thr_multi = 1.D-2
/
&IONS
/
ATOMIC_SPECIES
B      10.811 B_ONCV_PBE-1.2.upf
N      14.0067 N_ONCV_PBE-1.2.upf
ATOMIC_POSITIONS (angstrom)
B            -0.0264598530        0.2244914692       -0.0264598530
B             0.0186917100        0.0129269458        3.6055514540
B            -0.0011143150        0.0043584629        7.2553708556
B            -0.0070309244        3.6403909599       -0.0070309244
B            -0.0066461830        3.6431135275        3.6402270016
B            -0.0025003049        3.6380368416        7.2377355021
B            -0.0190424346        7.2042627762       -0.0190424346
B            -0.0016906745        7.2041480020        3.6645480166
B            -0.0022602744        7.2529508322        7.2484136323
B             3.6055514540        0.0129269458        0.0186917100
B             3.6118571189        0.0055328965        3.6118571189
B             3.6215999004        0.0032701001        7.2553732656
B             3.6402270016        3.6431135275       -0.0066461830
B             3.6340024955        3.6382015600        3.6340024955
B             3.6295217618        3.6275689240        7.2475508795
B             3.6645480166        7.2041480020       -0.0016906745
B             3.6270391813        7.2532585346        3.6270391813
B             3.6285077152        7.2578813698        7.2483825618
B             7.2553708556        0.0043584629       -0.0011143150
B             7.2553732656        0.0032701001        3.6215999004
B             7.2530339524        0.0025339341        7.2530339524
B             7.2377355021        3.6380368416       -0.0025003049
B             7.2475508795        3.6275689240        3.6295217618
B             7.2488392114        3.6286950810        7.2488392114
B             7.2484136323        7.2529508322       -0.0022602744
B             7.2483825618        7.2578813698        3.6285077152
B             7.2499521075        7.2590817423        7.2499521075
B            -0.0190752952        1.8691029293        1.8321403600
B            -0.0021155360        1.8205551011        5.4421712127
B            -0.0013853742        1.8692018193        9.0263326418
B            -0.0071569198        5.4333238822        1.8199867514
B            -0.0025730121        5.4354718276        5.4528086082
B            -0.0066659615        5.4306091639        9.0504183596
B            -0.0267168420        8.8484389653        1.8399731331
B            -0.0011420226        9.0689105160        5.4355728773
B             0.0187390274        9.0602388144        9.0857171734
B             3.6645063869        1.8693461995        1.8146300750
B             3.6285716609        1.8153963835        5.4423752706
B             3.6269225279        1.8202337404        9.0639862830
B             3.6403712311        5.4306908337        1.8196103981
B             3.6295523865        5.4457819282        5.4430994393
B             3.6339749842        5.4353965003        9.0568407840
B             3.6054605522        9.0601444886        1.7945547003
B             3.6217066649        9.0699585216        5.4357175869
B             3.6117210055        9.0676212122        9.0793505730
B             7.2484344572        1.8205161601        1.8150799985
B             7.2499323074        1.8141048969        5.4409400723
B             7.2484633144        1.8153952911        9.0624399026
B             7.2377041516        5.4355604445        1.8153227880
B             7.2488283896        5.4444511427        5.4419812704
B             7.2477096250        5.4457156829        9.0613212221
B             7.2553317294        9.0689718058        1.8140220281
B             7.2529981639        9.0706992443        5.4379757359
B             7.2553692579        9.0700350244        9.0692898701
B             1.8401806048        0.2246670753        1.8401806048
B             1.8141373816        0.0042709615        5.4355570286
B             1.7946022244        0.0128761159        9.0856153125
B             1.8200192210        3.6406167702        1.8200192210
B             1.8153828711        3.6379971836        5.4527662043
B             1.8195882406        3.6431362335        9.0503788735
B             1.8320467786        7.2041546543        1.8320467786
B             1.8149852963        7.2528906530        5.4422320633
B             1.8146055980        7.2041687643        9.0262174247
B             5.4355570286        0.0042709615        1.8141373816
B             5.4380501455        0.0024194129        5.4380501455
B             5.4355877548        0.0032448081        9.0692881946
B             5.4527662043        3.6379971836        1.8153828711
B             5.4419701202        3.6286955931        5.4419701202
B             5.4430722597        3.6275192456        9.0613288248
B             5.4422320633        7.2528906530        1.8149852963
B             5.4409719718        7.2590497597        5.4409719718
B             5.4424592794        7.2577937503        9.0622959437
B             9.0856153125        0.0128761159        1.7946022244
B             9.0692881946        0.0032448081        5.4355877548
B             9.0795726916        0.0056168358        9.0795726916
B             9.0503788735        3.6431362335        1.8195882406
B             9.0613288248        3.6275192456        5.4430722597
B             9.0569898691        3.6379910409        9.0569898691
B             9.0262174247        7.2041687643        1.8146055980
B             9.0622959437        7.2577937503        5.4424592794
B             9.0640303997        7.2531886129        9.0640303997
B             1.8321403600        1.8691029293       -0.0190752952
B             1.8146300750        1.8693461995        3.6645063869
B             1.8150799985        1.8205161601        7.2484344572
B             1.8199867514        5.4333238822       -0.0071569198
B             1.8196103981        5.4306908337        3.6403712311
B             1.8153227880        5.4355604445        7.2377041516
B             1.8399731331        8.8484389653       -0.0267168420
B             1.7945547003        9.0601444886        3.6054605522
B             1.8140220281        9.0689718058        7.2553317294
B             5.4421712127        1.8205551011       -0.0021155360
B             5.4423752706        1.8153963835        3.6285716609
B             5.4409400723        1.8141048969        7.2499323074
B             5.4528086082        5.4354718276       -0.0025730121
B             5.4430994393        5.4457819282        3.6295523865
B             5.4419812704        5.4444511427        7.2488283896
B             5.4355728773        9.0689105160       -0.0011420226
B             5.4357175869        9.0699585216        3.6217066649
B             5.4379757359        9.0706992443        7.2529981639
B             9.0263326418        1.8692018193       -0.0013853742
B             9.0639862830        1.8202337404        3.6269225279
B             9.0624399026        1.8153952911        7.2484633144
B             9.0504183596        5.4306091639       -0.0066659615
B             9.0568407840        5.4353965003        3.6339749842
B             9.0613212221        5.4457156829        7.2477096250
B             9.0857171734        9.0602388144        0.0187390274
B             9.0793505730        9.0676212122        3.6117210055
B             9.0692898701        9.0700350244        7.2553692579
N             0.9138587853        1.0257000569        2.7954665237
N             0.9065552998        0.9111176575        6.3452779508
N             0.8995508843        1.0254261814        9.8954706517
N             0.9065870647        4.5371532269        2.7298933497
N             0.9064831367        4.5368555075        6.3451527145
N             0.9065017982        4.5368991193        9.9607679417
N             0.8994347649        8.0472877992        2.7952485765
N             0.9064912644        8.1624244417        6.3453161652
N             0.9139352476        8.0474635568        9.8954860693
N             4.5390421657        0.9198490948        2.7215273069
N             4.5341070305        0.9082779528        6.3470949616
N             4.5294776473        0.9113065246        9.9709717345
N             4.5457194659        4.5365031167        2.7277999277
N             4.5370331786        4.5366724362        6.3453143546
N             4.5456151468        4.5370822607        9.9630239268
N             4.5295844368        8.1622474886        2.7198682320
N             4.5340629109        8.1650556514        6.3437302316
N             4.5391377456        8.1534875487        9.9693282071
N             8.1615951762        0.9112858459        2.7198386343
N             8.1570432030        0.9083061212        6.3436417259
N             8.1520122995        0.9198802136        9.9695271458
N             8.1450957597        4.5374429866        2.7276622915
N             8.1539589112        4.5367032044        6.3453053334
N             8.1451729115        4.5364194981        9.9630040454
N             8.1520195304        8.1536810377        2.7212636677
N             8.1569975694        8.1651154519        6.3471474731
N             8.1616433942        8.1622915790        9.9709486747
N             0.9066972025        2.7507753307        0.9066972025
N             0.9070720835        2.7539238929        4.5621368637
N             0.9062327716        2.7540369898        8.1281869837
N             0.9064779852        6.3228722278        0.9064779852
N             0.9058551176        6.3197380053        4.5623352079
N             0.9070154240        6.3198308610        8.1282207955
N             0.9070238584        9.3181858544        0.9070238584
N             0.9067552474        9.9753784015        4.5257420565
N             0.9066460848        9.9755426577        8.1655180585
N             4.5621368637        2.7539238929        0.9070720835
N             4.5379723679        2.7233471283        4.5379723679
N             4.5370012788        2.7222765158        8.1540267952
N             4.5623352079        6.3197380053        0.9058551176
N             4.5370433227        6.3508611652        4.5370433227
N             4.5380732574        6.3497729267        8.1529938790
N             4.5257420565        9.9753784015        0.9067552474
N             4.5275104742        9.9771825881        4.5275104742
N             4.5272310964        9.9736629688        8.1639403053
N             8.1281869837        2.7540369898        0.9062327716
N             8.1540267952        2.7222765158        4.5370012788
N             8.1532213806        2.7231332832        8.1532213806
N             8.1282207955        6.3198308610        0.9070154240
N             8.1529938790        6.3497729267        4.5380732574
N             8.1542055571        6.3506832484        8.1542055571
N             8.1655180585        9.9755426577        0.9066460848
N             8.1639403053        9.9736629688        4.5272310964
N             8.1640297906        9.9774680204        8.1640297906
N             2.7954665237        1.0257000569        0.9138587853
N             2.7215273069        0.9198490948        4.5390421657
N             2.7198386343        0.9112858459        8.1615951762
N             2.7298933497        4.5371532269        0.9065870647
N             2.7277999277        4.5365031167        4.5457194659
N             2.7276622915        4.5374429866        8.1450957597
N             2.7952485765        8.0472877992        0.8994347649
N             2.7198682320        8.1622474886        4.5295844368
N             2.7212636677        8.1536810377        8.1520195304
N             6.3452779508        0.9111176575        0.9065552998
N             6.3470949616        0.9082779528        4.5341070305
N             6.3436417259        0.9083061212        8.1570432030
N             6.3451527145        4.5368555075        0.9064831367
N             6.3453143546        4.5366724362        4.5370331786
N             6.3453053334        4.5367032044        8.1539589112
N             6.3453161652        8.1624244417        0.9064912644
N             6.3437302316        8.1650556514        4.5340629109
N             6.3471474731        8.1651154519        8.1569975694
N             9.8954706517        1.0254261814        0.8995508843
N             9.9709717345        0.9113065246        4.5294776473
N             9.9695271458        0.9198802136        8.1520122995
N             9.9607679417        4.5368991193        0.9065017982
N             9.9630239268        4.5370822607        4.5456151468
N             9.9630040454        4.5364194981        8.1451729115
N             9.8954860693        8.0474635568        0.9139352476
N             9.9693282071        8.1534875487        4.5391377456
N             9.9709486747        8.1622915790        8.1616433942
N             2.7346267584        2.7546773060        2.7346267584
N             2.7248789531        2.7229158241        6.3467747478
N             2.7341921792        2.7540444922        9.9565421067
N             2.7343321600        6.3198139258        2.7343321600
N             2.7248736287        6.3501309193        6.3434420170
N             2.7347476934        6.3193667084        9.9560408940
N             2.6876842118        9.9938405405        2.6876842118
N             2.7181975933        9.9755344449        6.3453673538
N             2.6876126701        9.9572585303       10.0038087807
N             6.3467747478        2.7229158241        2.7248789531
N             6.3453099612        2.7213184648        6.3453099612
N             6.3435929456        2.7230350788        9.9657878072
N             6.3434420170        6.3501309193        2.7248736287
N             6.3452889266        6.3515936692        6.3452889266
N             6.3469668236        6.3501172189        9.9656532539
N             6.3453673538        9.9755344449        2.7181975933
N             6.3454010034        9.9754637980        6.3454010034
N             6.3453101978        9.9755193621        9.9724836697
N             9.9565421067        2.7540444922        2.7341921792
N             9.9657878072        2.7230350788        6.3435929456
N             9.9563330661        2.7541251710        9.9563330661
N             9.9560408940        6.3193667084        2.7347476934
N             9.9656532539        6.3501172189        6.3469668236
N             9.9566761191        6.3196566989        9.9566761191
N            10.0038087807        9.9572585303        2.6876126701
N             9.9724836697        9.9755193621        6.3453101978
N            10.0042419703        9.9939009154       10.0042419703
N             0.9069548002       -0.2452472445        0.9069548002
K_POINTS gamma
CELL_PARAMETERS angstrom
     10.8780060000       0.0000000000       0.0000000000
      0.0000000000      10.8780060000       0.0000000000
      0.0000000000       0.0000000000      10.8780060000
