&CONTROL
  calculation = 'scf'
  etot_conv_thr =   2.1600000000d-03
  forc_conv_thr =   1.0000000000d-04
  outdir = './out/'
  prefix = 'aiida'
  pseudo_dir = './pseudo/'
  tprnfor = .true.
  !tstress = .true.
  verbosity = 'high'
  disk_io   = 'high'
  max_seconds = 14400
/
&SYSTEM
  degauss =   1.4699723600d-02
  ecutwfc =   10.0000000000d+01
  ibrav = 0
  nat = 216
  nosym = .false.
  ntyp = 2
  occupations = 'smearing'
  smearing = 'mv'
  tot_charge = -1
  nspin = 2
  starting_magnetization(1) =  0.5
  starting_magnetization(2) = -0.5
  input_dft = 'pbe0'
  exx_fraction = 0.23
  ecutfock = 120
  ace = .true.
  localization_thr = 0.001
/
&ELECTRONS
  conv_thr =   4.3200000000d-08
  electron_maxstep = 80
  mixing_beta =   4.0000000000d-01
  adaptive_thr = .True.
  conv_thr_init = 1.D-3 
  conv_thr_multi = 1.D-2
/
&IONS
/
ATOMIC_SPECIES
B      10.811 B_ONCV_PBE-1.2.upf
N      14.0067 N_ONCV_PBE-1.2.upf
ATOMIC_POSITIONS (angstrom)
N             0.0000000000        0.0000000000        0.0000000000
B             0.0000000000        0.0000000000        3.6233496720
B             0.0000000000        0.0000000000        7.2546563280
B             0.0000000000        3.6233496720        0.0000000000
B            -0.0031381910        3.6343871876        3.6343871876
B             0.0031381910        3.6343871876        7.2436188124
B             0.0000000000        7.2546563280       -0.0000000000
B             0.0031381910        7.2436188124        3.6343871876
B            -0.0031381910        7.2436188124        7.2436188124
B             3.6233496720        0.0000000000        0.0000000000
B             3.6343871876       -0.0031381910        3.6343871876
B             3.6343871876        0.0031381910        7.2436188124
B             3.6343871876        3.6343871876       -0.0031381910
B             3.6247176091        3.6247176091        3.6247176091
B             3.6282406266        3.6282406266        7.2497653734
B             3.6343871876        7.2436188124        0.0031381910
B             3.6282406266        7.2497653734        3.6282406266
B             3.6247176091        7.2532883909        7.2532883909
B             7.2546563280       -0.0000000000        0.0000000000
B             7.2436188124        0.0031381910        3.6343871876
B             7.2436188124       -0.0031381910        7.2436188124
B             7.2436188124        3.6343871876        0.0031381910
B             7.2497653734        3.6282406266        3.6282406266
B             7.2532883909        3.6247176091        7.2532883909
B             7.2436188124        7.2436188124       -0.0031381910
B             7.2532883909        7.2532883909        3.6247176091
B             7.2497653734        7.2497653734        7.2497653734
B            -0.0164516795        1.8280030172        1.8280030172
B             0.0000000000        1.8133965247        5.4390030000
B             0.0164516795        1.8280030172        9.0500029828
B             0.0000000000        5.4390030000        1.8133965247
B             0.0000000000        5.4390030000        5.4390030000
B             0.0000000000        5.4390030000        9.0646094753
B             0.0164516795        9.0500029828        1.8280030172
B            -0.0000000000        9.0646094753        5.4390030000
B            -0.0164516795        9.0500029828        9.0500029828
B             3.6239180427        1.8103627774        1.8103627774
B             3.6272780728        1.8138143863        5.4367588420
B             3.6347749833        1.8189652914        9.0590407086
B             3.6272780728        5.4367588420        1.8138143863
B             3.6262899953        5.4390030000        5.4390030000
B             3.6272780728        5.4412471580        9.0641916137
B             3.6347749833        9.0590407086        1.8189652914
B             3.6272780728        9.0641916137        5.4412471580
B             3.6239180427        9.0676432226        9.0676432226
B             7.2432310167        1.8189652914        1.8189652914
B             7.2507279272        1.8138143863        5.4412471580
B             7.2540879573        1.8103627774        9.0676432226
B             7.2507279272        5.4412471580        1.8138143863
B             7.2517160047        5.4390030000        5.4390030000
B             7.2507279272        5.4367588420        9.0641916137
B             7.2540879573        9.0676432226        1.8103627774
B             7.2507279272        9.0641916137        5.4367588420
B             7.2432310167        9.0590407086        9.0590407086
B             1.8280030172       -0.0164516795        1.8280030172
B             1.8133965247        0.0000000000        5.4390030000
B             1.8280030172        0.0164516795        9.0500029828
B             1.8103627774        3.6239180427        1.8103627774
B             1.8138143863        3.6272780728        5.4367588420
B             1.8189652914        3.6347749833        9.0590407086
B             1.8189652914        7.2432310167        1.8189652914
B             1.8138143863        7.2507279272        5.4412471580
B             1.8103627774        7.2540879573        9.0676432226
B             5.4390030000        0.0000000000        1.8133965247
B             5.4390030000        0.0000000000        5.4390030000
B             5.4390030000       -0.0000000000        9.0646094753
B             5.4367588420        3.6272780728        1.8138143863
B             5.4390030000        3.6262899953        5.4390030000
B             5.4412471580        3.6272780728        9.0641916137
B             5.4412471580        7.2507279272        1.8138143863
B             5.4390030000        7.2517160047        5.4390030000
B             5.4367588420        7.2507279272        9.0641916137
B             9.0500029828        0.0164516795        1.8280030172
B             9.0646094753        0.0000000000        5.4390030000
B             9.0500029828       -0.0164516795        9.0500029828
B             9.0590407086        3.6347749833        1.8189652914
B             9.0641916137        3.6272780728        5.4412471580
B             9.0676432226        3.6239180427        9.0676432226
B             9.0676432226        7.2540879573        1.8103627774
B             9.0641916137        7.2507279272        5.4367588420
B             9.0590407086        7.2432310167        9.0590407086
B             1.8280030172        1.8280030172       -0.0164516795
B             1.8103627774        1.8103627774        3.6239180427
B             1.8189652914        1.8189652914        7.2432310167
B             1.8133965247        5.4390030000        0.0000000000
B             1.8138143863        5.4367588420        3.6272780728
B             1.8138143863        5.4412471580        7.2507279272
B             1.8280030172        9.0500029828        0.0164516795
B             1.8189652914        9.0590407086        3.6347749833
B             1.8103627774        9.0676432226        7.2540879573
B             5.4390030000        1.8133965247        0.0000000000
B             5.4367588420        1.8138143863        3.6272780728
B             5.4412471580        1.8138143863        7.2507279272
B             5.4390030000        5.4390030000        0.0000000000
B             5.4390030000        5.4390030000        3.6262899953
B             5.4390030000        5.4390030000        7.2517160047
B             5.4390030000        9.0646094753        0.0000000000
B             5.4412471580        9.0641916137        3.6272780728
B             5.4367588420        9.0641916137        7.2507279272
B             9.0500029828        1.8280030172        0.0164516795
B             9.0590407086        1.8189652914        3.6347749833
B             9.0676432226        1.8103627774        7.2540879573
B             9.0646094753        5.4390030000        0.0000000000
B             9.0641916137        5.4412471580        3.6272780728
B             9.0641916137        5.4367588420        7.2507279272
B             9.0500029828        9.0500029828       -0.0164516795
B             9.0676432226        9.0676432226        3.6239180427
B             9.0590407086        9.0590407086        7.2432310167
N             0.9042344404        0.9042344404        2.7200501037
N             0.9080828308        0.9080828308        6.3436778869
N             1.0298735962        1.0298735962        9.8481324038
N             0.9070987039        4.5339552269        2.7213450725
N             0.9076436714        4.5378842899        6.3401217101
N             0.9080828308        4.5343281131        9.9699231692
N             0.9107391575        8.1342797404        2.7437262596
N             0.9070987039        8.1566609275        6.3440507731
N             0.9042344404        8.1579558963        9.9737715596
N             4.5339552269        0.9070987039        2.7213450725
N             4.5378842899        0.9076436714        6.3401217101
N             4.5343281131        0.9080828308        9.9699231692
N             4.5322396131        4.5322396131        2.7206989239
N             4.5338076422        4.5338076422        6.3441983578
N             4.5378842899        4.5378842899        9.9703623286
N             4.5381246836        8.1542914517        2.7237145483
N             4.5322396131        8.1573070761        6.3457663869
N             4.5339552269        8.1566609275        9.9709072961
N             8.1342797404        0.9107391575        2.7437262596
N             8.1566609275        0.9070987039        6.3440507731
N             8.1579558963        0.9042344404        9.9737715596
N             8.1542914517        4.5381246836        2.7237145483
N             8.1573070761        4.5322396131        6.3457663869
N             8.1566609275        4.5339552269        9.9709072961
N             8.1594967153        8.1594967153        2.7185092847
N             8.1542914517        8.1542914517        6.3398813164
N             8.1342797404        8.1342797404        9.9672668425
N             0.9042344404        2.7200501037        0.9042344404
N             0.9070987039        2.7213450725        4.5339552269
N             0.9107391575        2.7437262596        8.1342797404
N             0.9080828308        6.3436778869        0.9080828308
N             0.9076436714        6.3401217101        4.5378842899
N             0.9070987039        6.3440507731        8.1566609275
N             1.0298735962        9.8481324038        1.0298735962
N             0.9080828308        9.9699231692        4.5343281131
N             0.9042344404        9.9737715596        8.1579558963
N             4.5339552269        2.7213450725        0.9070987039
N             4.5322396131        2.7206989239        4.5322396131
N             4.5381246836        2.7237145483        8.1542914517
N             4.5378842899        6.3401217101        0.9076436714
N             4.5338076422        6.3441983578        4.5338076422
N             4.5322396131        6.3457663869        8.1573070761
N             4.5343281131        9.9699231692        0.9080828308
N             4.5378842899        9.9703623286        4.5378842899
N             4.5339552269        9.9709072961        8.1566609275
N             8.1342797404        2.7437262596        0.9107391575
N             8.1542914517        2.7237145483        4.5381246836
N             8.1594967153        2.7185092847        8.1594967153
N             8.1566609275        6.3440507731        0.9070987039
N             8.1573070761        6.3457663869        4.5322396131
N             8.1542914517        6.3398813164        8.1542914517
N             8.1579558963        9.9737715596        0.9042344404
N             8.1566609275        9.9709072961        4.5339552269
N             8.1342797404        9.9672668425        8.1342797404
N             2.7200501037        0.9042344404        0.9042344404
N             2.7213450725        0.9070987039        4.5339552269
N             2.7437262596        0.9107391575        8.1342797404
N             2.7213450725        4.5339552269        0.9070987039
N             2.7206989239        4.5322396131        4.5322396131
N             2.7237145483        4.5381246836        8.1542914517
N             2.7437262596        8.1342797404        0.9107391575
N             2.7237145483        8.1542914517        4.5381246836
N             2.7185092847        8.1594967153        8.1594967153
N             6.3436778869        0.9080828308        0.9080828308
N             6.3401217101        0.9076436714        4.5378842899
N             6.3440507731        0.9070987039        8.1566609275
N             6.3401217101        4.5378842899        0.9076436714
N             6.3441983578        4.5338076422        4.5338076422
N             6.3457663869        4.5322396131        8.1573070761
N             6.3440507731        8.1566609275        0.9070987039
N             6.3457663869        8.1573070761        4.5322396131
N             6.3398813164        8.1542914517        8.1542914517
N             9.8481324038        1.0298735962        1.0298735962
N             9.9699231692        0.9080828308        4.5343281131
N             9.9737715596        0.9042344404        8.1579558963
N             9.9699231692        4.5343281131        0.9080828308
N             9.9703623286        4.5378842899        4.5378842899
N             9.9709072961        4.5339552269        8.1566609275
N             9.9737715596        8.1579558963        0.9042344404
N             9.9709072961        8.1566609275        4.5339552269
N             9.9672668425        8.1342797404        8.1342797404
N             2.7185092847        2.7185092847        2.7185092847
N             2.7237145483        2.7237145483        6.3398813164
N             2.7437262596        2.7437262596        9.9672668425
N             2.7237145483        6.3398813164        2.7237145483
N             2.7206989239        6.3457663869        6.3457663869
N             2.7213450725        6.3440507731        9.9709072961
N             2.7437262596        9.9672668425        2.7437262596
N             2.7213450725        9.9709072961        6.3440507731
N             2.7200501037        9.9737715596        9.9737715596
N             6.3398813164        2.7237145483        2.7237145483
N             6.3457663869        2.7206989239        6.3457663869
N             6.3440507731        2.7213450725        9.9709072961
N             6.3457663869        6.3457663869        2.7206989239
N             6.3441983578        6.3441983578        6.3441983578
N             6.3401217101        6.3401217101        9.9703623286
N             6.3440507731        9.9709072961        2.7213450725
N             6.3401217101        9.9703623286        6.3401217101
N             6.3436778869        9.9699231692        9.9699231692
N             9.9672668425        2.7437262596        2.7437262596
N             9.9709072961        2.7213450725        6.3440507731
N             9.9737715596        2.7200501037        9.9737715596
N             9.9709072961        6.3440507731        2.7213450725
N             9.9703623286        6.3401217101        6.3401217101
N             9.9699231692        6.3436778869        9.9699231692
N             9.9737715596        9.9737715596        2.7200501037
N             9.9699231692        9.9699231692        6.3436778869
N             9.8481324038        9.8481324038        9.8481324038
K_POINTS gamma
CELL_PARAMETERS angstrom
     10.8780060000       0.0000000000       0.0000000000
      0.0000000000      10.8780060000       0.0000000000
      0.0000000000       0.0000000000      10.8780060000
