&CONTROL
  calculation = 'relax'
  etot_conv_thr =   2.1600000000d-03
  forc_conv_thr =   1.0000000000d-04
  outdir = './out/'
  prefix = 'aiida'
  pseudo_dir = './pseudo/'
  tprnfor = .true.
  tstress = .true.
  verbosity = 'high'
/
&SYSTEM
  degauss =   1.4699723600d-02
  ecutwfc =   10.0000000000d+01
  ibrav = 0
  nat = 215
  nosym = .false.
  ntyp = 2
  occupations = 'smearing'
  smearing = 'mv'
  tot_charge = -2
  nspin = 2
  starting_magnetization(1) =  0.5
  starting_magnetization(2) = -0.5
/
&ELECTRONS
  conv_thr =   4.3200000000d-08
  electron_maxstep = 500
  mixing_beta =   4.0000000000d-01
  scf_must_converge = .False.
/
&IONS
/
ATOMIC_SPECIES
B      10.811 B_ONCV_PBE-1.2.upf
N      14.0067 N_ONCV_PBE-1.2.upf
ATOMIC_POSITIONS angstrom
B             0.0000000000        0.0000000000        0.0000000000
N             0.0000000000        0.0000000000        3.6260031673
B             0.0000000000        0.0000000000        7.2520028327
B             0.0000000000        3.6260031673       -0.0000000000
B             0.0000000575        3.6260031571        3.6260031571
B            -0.0000000575        3.6260031571        7.2520028429
B             0.0000000000        7.2520028327        0.0000000000
B            -0.0000000575        7.2520028429        3.6260031571
B             0.0000000575        7.2520028429        7.2520028429
B             3.6260031673        0.0000000000        0.0000000000
B             3.6260031571        0.0000000575        3.6260031571
B             3.6260031571       -0.0000000575        7.2520028429
B             3.6260031571        3.6260031571        0.0000000575
B             3.6260031983        3.6260031983        3.6260031983
B             3.6260032082        3.6260032082        7.2520027918
B             3.6260031571        7.2520028429       -0.0000000575
B             3.6260032082        7.2520027918        3.6260032082
B             3.6260031983        7.2520028017        7.2520028017
B             7.2520028327        0.0000000000        0.0000000000
B             7.2520028429       -0.0000000575        3.6260031571
B             7.2520028429        0.0000000575        7.2520028429
B             7.2520028429        3.6260031571       -0.0000000575
B             7.2520027918        3.6260032082        3.6260032082
B             7.2520028017        3.6260031983        7.2520028017
B             7.2520028429        7.2520028429        0.0000000575
B             7.2520028017        7.2520028017        3.6260031983
B             7.2520027918        7.2520027918        7.2520027918
B             0.0000000682        1.8129998145        1.8129998145
B             0.0000000000        1.8129998063        5.4390030000
B            -0.0000000682        1.8129998145        9.0650061855
B             0.0000000000        5.4390030000        1.8129998063
B             0.0000000000        5.4390030000        5.4390030000
B             0.0000000000        5.4390030000        9.0650061937
B            -0.0000000682        9.0650061855        1.8129998145
B             0.0000000000        9.0650061937        5.4390030000
B             0.0000000682        9.0650061855        9.0650061855
B             3.6260032263        1.8129997977        1.8129997977
B             3.6260031643        1.8129997881        5.4390030505
B             3.6260032145        1.8129997659        9.0650062341
B             3.6260031643        5.4390030505        1.8129997881
B             3.6260031638        5.4390030000        5.4390030000
B             3.6260031643        5.4390029495        9.0650062119
B             3.6260032145        9.0650062341        1.8129997659
B             3.6260031643        9.0650062119        5.4390029495
B             3.6260032263        9.0650062023        9.0650062023
B             7.2520027855        1.8129997659        1.8129997659
B             7.2520028357        1.8129997881        5.4390029495
B             7.2520027737        1.8129997977        9.0650062023
B             7.2520028357        5.4390029495        1.8129997881
B             7.2520028362        5.4390030000        5.4390030000
B             7.2520028357        5.4390030505        9.0650062119
B             7.2520027737        9.0650062023        1.8129997977
B             7.2520028357        9.0650062119        5.4390030505
B             7.2520027855        9.0650062341        9.0650062341
B             1.8129998145        0.0000000682        1.8129998145
B             1.8129998063        0.0000000000        5.4390030000
B             1.8129998145       -0.0000000682        9.0650061855
B             1.8129997977        3.6260032263        1.8129997977
B             1.8129997881        3.6260031643        5.4390030505
B             1.8129997659        3.6260032145        9.0650062341
B             1.8129997659        7.2520027855        1.8129997659
B             1.8129997881        7.2520028357        5.4390029495
B             1.8129997977        7.2520027737        9.0650062023
B             5.4390030000        0.0000000000        1.8129998063
B             5.4390030000        0.0000000000        5.4390030000
B             5.4390030000        0.0000000000        9.0650061937
B             5.4390030505        3.6260031643        1.8129997881
B             5.4390030000        3.6260031638        5.4390030000
B             5.4390029495        3.6260031643        9.0650062119
B             5.4390029495        7.2520028357        1.8129997881
B             5.4390030000        7.2520028362        5.4390030000
B             5.4390030505        7.2520028357        9.0650062119
B             9.0650061855       -0.0000000682        1.8129998145
B             9.0650061937       -0.0000000000        5.4390030000
B             9.0650061855        0.0000000682        9.0650061855
B             9.0650062341        3.6260032145        1.8129997659
B             9.0650062119        3.6260031643        5.4390029495
B             9.0650062023        3.6260032263        9.0650062023
B             9.0650062023        7.2520027737        1.8129997977
B             9.0650062119        7.2520028357        5.4390030505
B             9.0650062341        7.2520027855        9.0650062341
B             1.8129998145        1.8129998145        0.0000000682
B             1.8129997977        1.8129997977        3.6260032263
B             1.8129997659        1.8129997659        7.2520027855
B             1.8129998063        5.4390030000       -0.0000000000
B             1.8129997881        5.4390030505        3.6260031643
B             1.8129997881        5.4390029495        7.2520028357
B             1.8129998145        9.0650061855       -0.0000000682
B             1.8129997659        9.0650062341        3.6260032145
B             1.8129997977        9.0650062023        7.2520027737
B             5.4390030000        1.8129998063       -0.0000000000
B             5.4390030505        1.8129997881        3.6260031643
B             5.4390029495        1.8129997881        7.2520028357
B             5.4390030000        5.4390030000        0.0000000000
B             5.4390030000        5.4390030000        3.6260031638
B             5.4390030000        5.4390030000        7.2520028362
B             5.4390030000        9.0650061937       -0.0000000000
B             5.4390029495        9.0650062119        3.6260031643
B             5.4390030505        9.0650062119        7.2520028357
B             9.0650061855        1.8129998145       -0.0000000682
B             9.0650062341        1.8129997659        3.6260032145
B             9.0650062023        1.8129997977        7.2520027737
B             9.0650061937        5.4390030000        0.0000000000
B             9.0650062119        5.4390029495        3.6260031643
B             9.0650062119        5.4390030505        7.2520028357
B             9.0650061855        9.0650061855        0.0000000682
B             9.0650062023        9.0650062023        3.6260032263
B             9.0650062341        9.0650062341        7.2520027855
N             0.9066154529        0.9066154529        6.3453909591
N             0.9066154036        0.9066154036        9.9713905964
N             0.9066153185        4.5326151839        2.7193876998
N             0.9066156366        4.5326149833        6.3453910167
N             0.9066154529        4.5326150409        9.9713905471
N             0.9066153425        8.1586182757        2.7193877243
N             0.9066153185        8.1586183002        6.3453908161
N             0.9066154461        8.1586183699        9.9713905539
N             4.5326151839        0.9066153185        2.7193876998
N             4.5326149833        0.9066156366        6.3453910167
N             4.5326150409        0.9066154529        9.9713905471
N             4.5326151958        4.5326151958        2.7193880150
N             4.5326149823        4.5326149823        6.3453910177
N             4.5326149833        4.5326149833        9.9713903634
N             4.5326150043        8.1586181751        2.7193878249
N             4.5326151958        8.1586179850        6.3453908042
N             4.5326151839        8.1586183002        9.9713906815
N             8.1586182757        0.9066153425        2.7193877243
N             8.1586183002        0.9066153185        6.3453908161
N             8.1586183699        0.9066154461        9.9713905539
N             8.1586181751        4.5326150043        2.7193878249
N             8.1586179850        4.5326151958        6.3453908042
N             8.1586183002        4.5326151839        9.9713906815
N             8.1586182155        8.1586182155        2.7193877845
N             8.1586181751        8.1586181751        6.3453909957
N             8.1586182757        8.1586182757        9.9713906575
N             0.9066154461        2.7193876301        0.9066154461
N             0.9066153185        2.7193876998        4.5326151839
N             0.9066153425        2.7193877243        8.1586182757
N             0.9066154529        6.3453909591        0.9066154529
N             0.9066156366        6.3453910167        4.5326149833
N             0.9066153185        6.3453908161        8.1586183002
N             0.9066154036        9.9713905964        0.9066154036
N             0.9066154529        9.9713905471        4.5326150409
N             0.9066154461        9.9713905539        8.1586183699
N             4.5326151839        2.7193876998        0.9066153185
N             4.5326151958        2.7193880150        4.5326151958
N             4.5326150043        2.7193878249        8.1586181751
N             4.5326149833        6.3453910167        0.9066156366
N             4.5326149823        6.3453910177        4.5326149823
N             4.5326151958        6.3453908042        8.1586179850
N             4.5326150409        9.9713905471        0.9066154529
N             4.5326149833        9.9713903634        4.5326149833
N             4.5326151839        9.9713906815        8.1586183002
N             8.1586182757        2.7193877243        0.9066153425
N             8.1586181751        2.7193878249        4.5326150043
N             8.1586182155        2.7193877845        8.1586182155
N             8.1586183002        6.3453908161        0.9066153185
N             8.1586179850        6.3453908042        4.5326151958
N             8.1586181751        6.3453909957        8.1586181751
N             8.1586183699        9.9713905539        0.9066154461
N             8.1586183002        9.9713906815        4.5326151839
N             8.1586182757        9.9713906575        8.1586182757
N             2.7193876301        0.9066154461        0.9066154461
N             2.7193876998        0.9066153185        4.5326151839
N             2.7193877243        0.9066153425        8.1586182757
N             2.7193876998        4.5326151839        0.9066153185
N             2.7193880150        4.5326151958        4.5326151958
N             2.7193878249        4.5326150043        8.1586181751
N             2.7193877243        8.1586182757        0.9066153425
N             2.7193878249        8.1586181751        4.5326150043
N             2.7193877845        8.1586182155        8.1586182155
N             6.3453909591        0.9066154529        0.9066154529
N             6.3453910167        0.9066156366        4.5326149833
N             6.3453908161        0.9066153185        8.1586183002
N             6.3453910167        4.5326149833        0.9066156366
N             6.3453910177        4.5326149823        4.5326149823
N             6.3453908042        4.5326151958        8.1586179850
N             6.3453908161        8.1586183002        0.9066153185
N             6.3453908042        8.1586179850        4.5326151958
N             6.3453909957        8.1586181751        8.1586181751
N             9.9713905964        0.9066154036        0.9066154036
N             9.9713905471        0.9066154529        4.5326150409
N             9.9713905539        0.9066154461        8.1586183699
N             9.9713905471        4.5326150409        0.9066154529
N             9.9713903634        4.5326149833        4.5326149833
N             9.9713906815        4.5326151839        8.1586183002
N             9.9713905539        8.1586183699        0.9066154461
N             9.9713906815        8.1586183002        4.5326151839
N             9.9713906575        8.1586182757        8.1586182757
N             2.7193877845        2.7193877845        2.7193877845
N             2.7193878249        2.7193878249        6.3453909957
N             2.7193877243        2.7193877243        9.9713906575
N             2.7193878249        6.3453909957        2.7193878249
N             2.7193880150        6.3453908042        6.3453908042
N             2.7193876998        6.3453908161        9.9713906815
N             2.7193877243        9.9713906575        2.7193877243
N             2.7193876998        9.9713906815        6.3453908161
N             2.7193876301        9.9713905539        9.9713905539
N             6.3453909957        2.7193878249        2.7193878249
N             6.3453908042        2.7193880150        6.3453908042
N             6.3453908161        2.7193876998        9.9713906815
N             6.3453908042        6.3453908042        2.7193880150
N             6.3453910177        6.3453910177        6.3453910177
N             6.3453910167        6.3453910167        9.9713903634
N             6.3453908161        9.9713906815        2.7193876998
N             6.3453910167        9.9713903634        6.3453910167
N             6.3453909591        9.9713905471        9.9713905471
N             9.9713906575        2.7193877243        2.7193877243
N             9.9713906815        2.7193876998        6.3453908161
N             9.9713905539        2.7193876301        9.9713905539
N             9.9713906815        6.3453908161        2.7193876998
N             9.9713903634        6.3453910167        6.3453910167
N             9.9713905471        6.3453909591        9.9713905471
N             9.9713905539        9.9713905539        2.7193876301
N             9.9713905471        9.9713905471        6.3453909591
N             9.9713905964        9.9713905964        9.9713905964
K_POINTS gamma
CELL_PARAMETERS angstrom
     10.8780060000       0.0000000000       0.0000000000
      0.0000000000      10.8780060000       0.0000000000
      0.0000000000       0.0000000000      10.8780060000
