&CONTROL
  calculation = 'scf'
  etot_conv_thr =   2.1600000000d-03
  forc_conv_thr =   1.0000000000d-04
  outdir = './out/'
  prefix = 'aiida'
  pseudo_dir = './pseudo/'
  tprnfor = .true.
  !tstress = .true.
  verbosity = 'high'
  disk_io   = 'high'
  max_seconds = 14400
/
&SYSTEM
  degauss =   1.4699723600d-02
  ecutwfc =   10.0000000000d+01
  ibrav = 0
  nat = 215
  nosym = .false.
  ntyp = 2
  occupations = 'smearing'
  smearing = 'mv'
  tot_charge = -2
  nspin = 2
  starting_magnetization(1) =  0.5
  starting_magnetization(2) = -0.5
  input_dft = 'pbe0'
  exx_fraction = 0.23
  ecutfock = 120
  ace = .true.
  localization_thr = 0.001
/
&ELECTRONS
  conv_thr =   4.3200000000d-08
  electron_maxstep = 80
  mixing_beta =   4.0000000000d-01
  adaptive_thr = .True.
  conv_thr_init = 1.D-3 
  conv_thr_multi = 1.D-2
/
&IONS
/
ATOMIC_SPECIES
B      10.811 B_ONCV_PBE-1.2.upf
N      14.0067 N_ONCV_PBE-1.2.upf
ATOMIC_POSITIONS (angstrom)
B            -0.0052800418       -0.0052800418        0.0043215316
B             0.0067839182        0.0067839182        7.2343713952
B            -0.0044255031        3.6185923795        0.0074107878
B            -0.0052799843        3.6216816255        3.6312831989
B            -0.0051851755        3.6329349507        7.2572887643
B            -0.0051851180        7.2467169113       -0.0069317936
B             0.0067838607        7.2696342804        3.6192192389
B             0.0086391809        7.2597438982        7.2442617876
B             3.6185923795       -0.0044255031        0.0074107878
B             3.6216816255       -0.0052799843        3.6312831989
B             3.6329349507       -0.0051851755        7.2572887643
B             3.6182131159        3.6182131159        0.0077900987
B             3.6185924105        3.6185924105        3.6304287014
B             3.6237459439        3.6237459439        7.2567270035
B             3.6237458928        7.2472786312        0.0022572068
B             3.6329350018        7.2467168704        3.6311883262
B             3.6306080996        7.2508957598        7.2531098436
B             7.2467169113       -0.0051851180       -0.0069317936
B             7.2696342804        0.0067838607        3.6192192389
B             7.2597438982        0.0086391809        7.2442617876
B             7.2472786312        3.6237458928        0.0022572068
B             7.2467168704        3.6329350018        3.6311883262
B             7.2508957598        3.6306080996        7.2531098436
B             7.2508958010        7.2508958010       -0.0046048438
B             7.2597438570        7.2597438570        3.6173640749
B             7.2600676698        7.2600676698        7.2439379138
B            -0.0813052316        1.8043955461        1.8216040829
B            -0.0165650972        1.8147579497        5.4224695729
B            -0.0019831455        1.8113086190        9.0652904184
B            -0.0019830773        5.4387187671        1.8146910018
B             0.0013237871        5.4464097150        5.4381969652
B            -0.0013499300        5.4388646441        9.0651445496
B            -0.0165651654        9.0815396126        1.8112416711
B             0.0398130857        9.1122949163        5.3917142774
B             0.0013238553        9.0658122203        9.0575994705
B             3.6043208466        1.7991551055        1.8268444899
B             3.6361296560        1.8066514029        5.4516967282
B             3.6203015058        1.8095381434        9.0709870641
B             3.6203014556        5.4330222205        1.8164614106
B             3.6285865161        5.4388899492        5.4412677045
B             3.6244586204        5.4353065668        9.0687025946
B             3.6361297062        9.0523125564        1.8193481511
B             3.6319117936        9.0606680903        5.4433410711
B             3.6285865786        9.0627414978        9.0651192531
B             7.2577041848        1.8079504267        1.8180491051
B             7.2549756249        1.8216139344        5.4402783732
B             7.2470599251        1.8133334301        9.0629846553
B             7.2470599871        5.4410244965        1.8126661557
B             7.2558626118        5.4476777814        5.4370996805
B             7.2516312076        5.4406167341        9.0633925283
B             7.2549755629        9.0637307786        1.8043856514
B             7.2742797705        9.0812868180        5.4227224444
B             7.2558625611        9.0669095536        9.0563314527
B             1.8043955461       -0.0813052316        1.8216040829
B             1.8147579497       -0.0165650972        5.4224695729
B             1.8113086190       -0.0019831455        9.0652904184
B             1.7991551055        3.6043208466        1.8268444899
B             1.8066514029        3.6361296560        5.4516967282
B             1.8095381434        3.6203015058        9.0709870641
B             1.8079504267        7.2577041848        1.8180491051
B             1.8216139344        7.2549756249        5.4402783732
B             1.8133334301        7.2470599251        9.0629846553
B             5.4387187671       -0.0019830773        1.8146910018
B             5.4464097150        0.0013237871        5.4381969652
B             5.4388646441       -0.0013499300        9.0651445496
B             5.4330222205        3.6203014556        1.8164614106
B             5.4388899492        3.6285865161        5.4412677045
B             5.4353065668        3.6244586204        9.0687025946
B             5.4410244965        7.2470599871        1.8126661557
B             5.4476777814        7.2558626118        5.4370996805
B             5.4406167341        7.2516312076        9.0633925283
B             9.0815396126       -0.0165651654        1.8112416711
B             9.1122949163        0.0398130857        5.3917142774
B             9.0658122203        0.0013238553        9.0575994705
B             9.0523125564        3.6361297062        1.8193481511
B             9.0606680903        3.6319117936        5.4433410711
B             9.0627414978        3.6285865786        9.0651192531
B             9.0637307786        7.2549755629        1.8043856514
B             9.0812868180        7.2742797705        5.4227224444
B             9.0669095536        7.2558625611        9.0563314527
B             1.7991551223        1.7991551223        0.0216824479
B             1.8043955293        1.8043955293        3.7073085261
B             1.8079504267        1.8079504267        7.2463013862
B             1.8095381838        5.4330221700        0.0057017087
B             1.8113085926        5.4387188176        3.6279862416
B             1.8133334205        5.4410244965        7.2569456843
B             1.8066514293        9.0523125078       -0.0101265599
B             1.8147579093        9.0815396612        3.6425683117
B             1.8216139440        9.0637307786        7.2490299845
B             5.4330221700        1.8095381838        0.0057017087
B             5.4387188176        1.8113085926        3.6279862416
B             5.4410244965        1.8133334205        7.2569456843
B             5.4353066173        5.4353066173        0.0015445439
B             5.4388646441        5.4388646441        3.6273530938
B             5.4406166836        5.4406166836        7.2523744643
B             5.4388899492        9.0627414892       -0.0025833523
B             5.4464096645        9.0658122467        3.6246793772
B             5.4476778319        9.0669095314        7.2481430601
B             9.0523125078        1.8066514293       -0.0101265599
B             9.0815396612        1.8147579093        3.6425683117
B             9.0637307786        1.8216139440        7.2490299845
B             9.0627414892        5.4388899492       -0.0025833523
B             9.0658122467        5.4464096645        3.6246793772
B             9.0669095314        5.4476778319        7.2481430601
B             9.0606680639        9.0606680639       -0.0059085611
B             9.1122949249        9.1122949249        3.5861901406
B             9.0812868402        9.0812868402        7.2297258507
B             0.8112289342        0.8112289342        2.8147741420
N             0.9098071351        0.9098071351        6.3453592522
N             0.9034906094        0.9034906094        9.9717653169
N             0.9034905243        4.5322404634        2.7225124940
N             0.9073250352        4.5461130456        6.3584446439
N             0.9041280664        4.5303442852        9.9736613028
N             0.9098070247        8.1586499826        2.7161960421
N             0.9190979175        8.1519817086        6.3520274077
N             0.9073248447        8.1455647427        9.9578924916
N             4.5322404634        0.9034905243        2.7225124940
N             4.5461130456        0.9073250352        6.3584446439
N             4.5303442852        0.9041280664        9.9736613028
N             4.5303444401        4.5303444401        2.7218754015
N             4.5340226095        4.5340226095        6.3501087958
N             4.5295387251        4.5295387251        9.9744666216
N             4.5461130666        8.1455645479        2.7186784263
N             4.5445342014        8.1549366855        6.3490721037
N             4.5340228111        8.1539005221        9.9699830543
N             8.1586499826        0.9098070247        2.7161960421
N             8.1519817086        0.9190979175        6.3520274077
N             8.1455647427        0.9073248447        9.9578924916
N             8.1455645479        4.5461130666        2.7186784263
N             8.1549366855        4.5445342014        6.3490721037
N             8.1539005221        4.5340228111        9.9699830543
N             8.1519816239        8.1519816239        2.7069051855
N             8.1686477054        8.1686477054        6.3353614654
N             8.1549369762        8.1549369762        9.9594716519
N             0.8916908518        2.7114027984        0.9146002778
N             0.9073522700        2.7558886612        4.5710240412
N             0.9056682265        2.7214234682        8.1623842559
N             0.9056683369        6.3416249789        0.9045797090
N             0.9103934820        6.3473923731        4.5330646150
N             0.9088516320        6.3433856193        8.1606234970
N             0.9073523551        9.9329817391        0.8701144422
N             1.0105200286        9.9304277854        4.5735778026
N             0.9103932915        9.9709409222        8.1566170135
N             4.5245327362        2.7142181457        0.9117848726
N             4.5368940173        2.7220450140        4.5387325695
N             4.5309817605        2.7199048137        8.1648958239
N             4.5309817395        6.3391133679        0.9060986478
N             4.5416466216        6.3415431324        4.5350176144
N             4.5354196374        6.3433102264        8.1606985628
N             4.5368938624        9.9652731734        0.9039584539
N             4.5420797920        9.9674356438        4.5365697029
N             4.5416468232        9.9689880494        8.1624661855
N             8.1490277373        2.7232873112        0.9027157556
N             8.1353717089        2.7461258653        4.5389384975
N             8.1523570594        2.7265457482        8.1626168915
N             8.1523571441        6.3413921401        0.8994573548
N             8.1627199370        6.3548394454        4.5296456046
N             8.1590656621        6.3500542780        8.1539548928
N             8.1353719037        9.9650670607        0.8798774057
N             8.1760402176        9.9880041496        4.5160017158
N             8.1627202277        9.9743602487        8.1491696345
N             2.7114027984        0.8916908518        0.9146002778
N             2.7558886612        0.9073522700        4.5710240412
N             2.7214234682        0.9056682265        8.1623842559
N             2.7142181457        4.5245327362        0.9117848726
N             2.7220450140        4.5368940173        4.5387325695
N             2.7199048137        4.5309817605        8.1648958239
N             2.7232873112        8.1490277373        0.9027157556
N             2.7461258653        8.1353717089        4.5389384975
N             2.7265457482        8.1523570594        8.1626168915
N             6.3416249789        0.9056683369        0.9045797090
N             6.3473923731        0.9103934820        4.5330646150
N             6.3433856193        0.9088516320        8.1606234970
N             6.3391133679        4.5309817395        0.9060986478
N             6.3415431324        4.5416466216        4.5350176144
N             6.3433102264        4.5354196374        8.1606985628
N             6.3413921401        8.1523571441        0.8994573548
N             6.3548394454        8.1627199370        4.5296456046
N             6.3500542780        8.1590656621        8.1539548928
N             9.9329817391        0.9073523551        0.8701144422
N             9.9304277854        1.0105200286        4.5735778026
N             9.9709409222        0.9103932915        8.1566170135
N             9.9652731734        4.5368938624        0.9039584539
N             9.9674356438        4.5420797920        4.5365697029
N             9.9689880494        4.5416468232        8.1624661855
N             9.9650670607        8.1353719037        0.8798774057
N             9.9880041496        8.1760402176        4.5160017158
N             9.9743602487        8.1627202277        8.1491696345
N             2.7114029528        2.7114029528        2.7343123788
N             2.7232874118        2.7232874118        6.3549815341
N             2.7142181702        2.7142181702        9.9794731052
N             2.7214235688        6.3416250155        2.7203349409
N             2.7265459787        6.3413921282        6.3516519603
N             2.7199046886        6.3391131673        9.9730239253
N             2.7558886857        9.9329818002        2.7186507728
N             2.7461257402        9.9650671883        6.3686372823
N             2.7220446291        9.9652731802        9.9671117324
N             6.3416250155        2.7214235688        2.7203349409
N             6.3413921282        2.7265459787        6.3516519603
N             6.3391131673        2.7199046886        9.9730239253
N             6.3433856074        6.3433856074        2.7171517015
N             6.3500543000        6.3500543000        6.3449435307
N             6.3433104389        6.3433104389        9.9685859218
N             6.3473921725        9.9709410498        2.7156098544
N             6.3548396579        9.9743599546        6.3412890647
N             6.3415430738        9.9689879150        9.9623589078
N             9.9329818002        2.7558886857        2.7186507728
N             9.9650671883        2.7461257402        6.3686372823
N             9.9652731802        2.7220446291        9.9671117324
N             9.9709410498        6.3473921725        2.7156098544
N             9.9743599546        6.3548396579        6.3412890647
N             9.9689879150        6.3415430738        9.9623589078
N             9.9304277922        9.9304277922        2.6154830544
N             9.9880040152        9.9880040152        6.3279690417
N             9.9674358768        9.9674358768        9.9619257877
K_POINTS gamma
CELL_PARAMETERS angstrom
     10.8780060000       0.0000000000       0.0000000000
      0.0000000000      10.8780060000       0.0000000000
      0.0000000000       0.0000000000      10.8780060000
