&CONTROL
  calculation = 'relax'
  etot_conv_thr =   2.1600000000d-03
  forc_conv_thr =   1.0000000000d-04
  outdir = './out/'
  prefix = 'aiida'
  pseudo_dir = './pseudo/'
  tprnfor = .true.
  tstress = .true.
  verbosity = 'high'
/
&SYSTEM
  degauss =   1.4699723600d-02
  ecutwfc =   10.0000000000d+01
  ibrav = 0
  nat = 215
  nosym = .false.
  ntyp = 2
  occupations = 'smearing'
  smearing = 'mv'
  tot_charge = -1
  nspin = 2
  starting_magnetization(1) =  0.5
  starting_magnetization(2) = -0.5
/
&ELECTRONS
  conv_thr =   4.3200000000d-08
  electron_maxstep = 80
  mixing_beta =   4.0000000000d-01
/
&IONS
/
ATOMIC_SPECIES
B      10.811 B_ONCV_PBE-1.2.upf
N      14.0067 N_ONCV_PBE-1.2.upf
ATOMIC_POSITIONS angstrom
B       0.0000000000   0.0000000000   3.6259983740
B       0.0000000000   0.0000000000   7.2520076260
B       0.0000000000   3.6259983740   0.0000000000
B       0.0000000000   3.6259983740   3.6259983740
B       0.0000000000   3.6259983740   7.2520076260
B       0.0000000000   7.2520076260   0.0000000000
B       0.0000000000   7.2520076260   3.6259983740
B       0.0000000000   7.2520076260   7.2520076260
B       3.6259983740   0.0000000000   0.0000000000
B       3.6259983740   0.0000000000   3.6259983740
B       3.6259983740   0.0000000000   7.2520076260
B       3.6259983740   3.6259983740   0.0000000000
B       3.6259983740   3.6259983740   3.6259983740
B       3.6259983740   3.6259983740   7.2520076260
B       3.6259983740   7.2520076260   0.0000000000
B       3.6259983740   7.2520076260   3.6259983740
B       3.6259983740   7.2520076260   7.2520076260
B       7.2520076260   0.0000000000   0.0000000000
B       7.2520076260   0.0000000000   3.6259983740
B       7.2520076260   0.0000000000   7.2520076260
B       7.2520076260   3.6259983740   0.0000000000
B       7.2520076260   3.6259983740   3.6259983740
B       7.2520076260   3.6259983740   7.2520076260
B       7.2520076260   7.2520076260   0.0000000000
B       7.2520076260   7.2520076260   3.6259983740
B       7.2520076260   7.2520076260   7.2520076260
B       0.0000000000   1.8130046260   1.8130046260
B       0.0000000000   1.8130046260   5.4390030000
B       0.0000000000   1.8130046260   9.0650013740
B       0.0000000000   5.4390030000   1.8130046260
B       0.0000000000   5.4390030000   5.4390030000
B       0.0000000000   5.4390030000   9.0650013740
B       0.0000000000   9.0650013740   1.8130046260
B       0.0000000000   9.0650013740   5.4390030000
B       0.0000000000   9.0650013740   9.0650013740
B       3.6259983740   1.8130046260   1.8130046260
B       3.6259983740   1.8130046260   5.4390030000
B       3.6259983740   1.8130046260   9.0650013740
B       3.6259983740   5.4390030000   1.8130046260
B       3.6259983740   5.4390030000   5.4390030000
B       3.6259983740   5.4390030000   9.0650013740
B       3.6259983740   9.0650013740   1.8130046260
B       3.6259983740   9.0650013740   5.4390030000
B       3.6259983740   9.0650013740   9.0650013740
B       7.2520076260   1.8130046260   1.8130046260
B       7.2520076260   1.8130046260   5.4390030000
B       7.2520076260   1.8130046260   9.0650013740
B       7.2520076260   5.4390030000   1.8130046260
B       7.2520076260   5.4390030000   5.4390030000
B       7.2520076260   5.4390030000   9.0650013740
B       7.2520076260   9.0650013740   1.8130046260
B       7.2520076260   9.0650013740   5.4390030000
B       7.2520076260   9.0650013740   9.0650013740
B       1.8130046260   0.0000000000   1.8130046260
B       1.8130046260   0.0000000000   5.4390030000
B       1.8130046260   0.0000000000   9.0650013740
B       1.8130046260   3.6259983740   1.8130046260
B       1.8130046260   3.6259983740   5.4390030000
B       1.8130046260   3.6259983740   9.0650013740
B       1.8130046260   7.2520076260   1.8130046260
B       1.8130046260   7.2520076260   5.4390030000
B       1.8130046260   7.2520076260   9.0650013740
B       5.4390030000   0.0000000000   1.8130046260
B       5.4390030000   0.0000000000   5.4390030000
B       5.4390030000   0.0000000000   9.0650013740
B       5.4390030000   3.6259983740   1.8130046260
B       5.4390030000   3.6259983740   5.4390030000
B       5.4390030000   3.6259983740   9.0650013740
B       5.4390030000   7.2520076260   1.8130046260
B       5.4390030000   7.2520076260   5.4390030000
B       5.4390030000   7.2520076260   9.0650013740
B       9.0650013740   0.0000000000   1.8130046260
B       9.0650013740   0.0000000000   5.4390030000
B       9.0650013740   0.0000000000   9.0650013740
B       9.0650013740   3.6259983740   1.8130046260
B       9.0650013740   3.6259983740   5.4390030000
B       9.0650013740   3.6259983740   9.0650013740
B       9.0650013740   7.2520076260   1.8130046260
B       9.0650013740   7.2520076260   5.4390030000
B       9.0650013740   7.2520076260   9.0650013740
B       1.8130046260   1.8130046260   0.0000000000
B       1.8130046260   1.8130046260   3.6259983740
B       1.8130046260   1.8130046260   7.2520076260
B       1.8130046260   5.4390030000   0.0000000000
B       1.8130046260   5.4390030000   3.6259983740
B       1.8130046260   5.4390030000   7.2520076260
B       1.8130046260   9.0650013740   0.0000000000
B       1.8130046260   9.0650013740   3.6259983740
B       1.8130046260   9.0650013740   7.2520076260
B       5.4390030000   1.8130046260   0.0000000000
B       5.4390030000   1.8130046260   3.6259983740
B       5.4390030000   1.8130046260   7.2520076260
B       5.4390030000   5.4390030000   0.0000000000
B       5.4390030000   5.4390030000   3.6259983740
B       5.4390030000   5.4390030000   7.2520076260
B       5.4390030000   9.0650013740   0.0000000000
B       5.4390030000   9.0650013740   3.6259983740
B       5.4390030000   9.0650013740   7.2520076260
B       9.0650013740   1.8130046260   0.0000000000
B       9.0650013740   1.8130046260   3.6259983740
B       9.0650013740   1.8130046260   7.2520076260
B       9.0650013740   5.4390030000   0.0000000000
B       9.0650013740   5.4390030000   3.6259983740
B       9.0650013740   5.4390030000   7.2520076260
B       9.0650013740   9.0650013740   0.0000000000
B       9.0650013740   9.0650013740   3.6259983740
B       9.0650013740   9.0650013740   7.2520076260
N       0.9064968740   0.9064968740   2.7195015000
N       0.9064968740   0.9064968740   6.3454998740
N       0.9064968740   0.9064968740   9.9715091260
N       0.9064968740   4.5325061260   2.7195015000
N       0.9064968740   4.5325061260   6.3454998740
N       0.9064968740   4.5325061260   9.9715091260
N       0.9064968740   8.1585045000   2.7195015000
N       0.9064968740   8.1585045000   6.3454998740
N       0.9064968740   8.1585045000   9.9715091260
N       4.5325061260   0.9064968740   2.7195015000
N       4.5325061260   0.9064968740   6.3454998740
N       4.5325061260   0.9064968740   9.9715091260
N       4.5325061260   4.5325061260   2.7195015000
N       4.5325061260   4.5325061260   6.3454998740
N       4.5325061260   4.5325061260   9.9715091260
N       4.5325061260   8.1585045000   2.7195015000
N       4.5325061260   8.1585045000   6.3454998740
N       4.5325061260   8.1585045000   9.9715091260
N       8.1585045000   0.9064968740   2.7195015000
N       8.1585045000   0.9064968740   6.3454998740
N       8.1585045000   0.9064968740   9.9715091260
N       8.1585045000   4.5325061260   2.7195015000
N       8.1585045000   4.5325061260   6.3454998740
N       8.1585045000   4.5325061260   9.9715091260
N       8.1585045000   8.1585045000   2.7195015000
N       8.1585045000   8.1585045000   6.3454998740
N       8.1585045000   8.1585045000   9.9715091260
N       0.9064968740   2.7195015000   0.9064968740
N       0.9064968740   2.7195015000   4.5325061260
N       0.9064968740   2.7195015000   8.1585045000
N       0.9064968740   6.3454998740   0.9064968740
N       0.9064968740   6.3454998740   4.5325061260
N       0.9064968740   6.3454998740   8.1585045000
N       0.9064968740   9.9715091260   0.9064968740
N       0.9064968740   9.9715091260   4.5325061260
N       0.9064968740   9.9715091260   8.1585045000
N       4.5325061260   2.7195015000   0.9064968740
N       4.5325061260   2.7195015000   4.5325061260
N       4.5325061260   2.7195015000   8.1585045000
N       4.5325061260   6.3454998740   0.9064968740
N       4.5325061260   6.3454998740   4.5325061260
N       4.5325061260   6.3454998740   8.1585045000
N       4.5325061260   9.9715091260   0.9064968740
N       4.5325061260   9.9715091260   4.5325061260
N       4.5325061260   9.9715091260   8.1585045000
N       8.1585045000   2.7195015000   0.9064968740
N       8.1585045000   2.7195015000   4.5325061260
N       8.1585045000   2.7195015000   8.1585045000
N       8.1585045000   6.3454998740   0.9064968740
N       8.1585045000   6.3454998740   4.5325061260
N       8.1585045000   6.3454998740   8.1585045000
N       8.1585045000   9.9715091260   0.9064968740
N       8.1585045000   9.9715091260   4.5325061260
N       8.1585045000   9.9715091260   8.1585045000
N       2.7195015000   0.9064968740   0.9064968740
N       2.7195015000   0.9064968740   4.5325061260
N       2.7195015000   0.9064968740   8.1585045000
N       2.7195015000   4.5325061260   0.9064968740
N       2.7195015000   4.5325061260   4.5325061260
N       2.7195015000   4.5325061260   8.1585045000
N       2.7195015000   8.1585045000   0.9064968740
N       2.7195015000   8.1585045000   4.5325061260
N       2.7195015000   8.1585045000   8.1585045000
N       6.3454998740   0.9064968740   0.9064968740
N       6.3454998740   0.9064968740   4.5325061260
N       6.3454998740   0.9064968740   8.1585045000
N       6.3454998740   4.5325061260   0.9064968740
N       6.3454998740   4.5325061260   4.5325061260
N       6.3454998740   4.5325061260   8.1585045000
N       6.3454998740   8.1585045000   0.9064968740
N       6.3454998740   8.1585045000   4.5325061260
N       6.3454998740   8.1585045000   8.1585045000
N       9.9715091260   0.9064968740   0.9064968740
N       9.9715091260   0.9064968740   4.5325061260
N       9.9715091260   0.9064968740   8.1585045000
N       9.9715091260   4.5325061260   0.9064968740
N       9.9715091260   4.5325061260   4.5325061260
N       9.9715091260   4.5325061260   8.1585045000
N       9.9715091260   8.1585045000   0.9064968740
N       9.9715091260   8.1585045000   4.5325061260
N       9.9715091260   8.1585045000   8.1585045000
N       2.7195015000   2.7195015000   2.7195015000
N       2.7195015000   2.7195015000   6.3454998740
N       2.7195015000   2.7195015000   9.9715091260
N       2.7195015000   6.3454998740   2.7195015000
N       2.7195015000   6.3454998740   6.3454998740
N       2.7195015000   6.3454998740   9.9715091260
N       2.7195015000   9.9715091260   2.7195015000
N       2.7195015000   9.9715091260   6.3454998740
N       2.7195015000   9.9715091260   9.9715091260
N       6.3454998740   2.7195015000   2.7195015000
N       6.3454998740   2.7195015000   6.3454998740
N       6.3454998740   2.7195015000   9.9715091260
N       6.3454998740   6.3454998740   2.7195015000
N       6.3454998740   6.3454998740   6.3454998740
N       6.3454998740   6.3454998740   9.9715091260
N       6.3454998740   9.9715091260   2.7195015000
N       6.3454998740   9.9715091260   6.3454998740
N       6.3454998740   9.9715091260   9.9715091260
N       9.9715091260   2.7195015000   2.7195015000
N       9.9715091260   2.7195015000   6.3454998740
N       9.9715091260   2.7195015000   9.9715091260
N       9.9715091260   6.3454998740   2.7195015000
N       9.9715091260   6.3454998740   6.3454998740
N       9.9715091260   6.3454998740   9.9715091260
N       9.9715091260   9.9715091260   2.7195015000
N       9.9715091260   9.9715091260   6.3454998740
N       9.9715091260   9.9715091260   9.9715091260
K_POINTS gamma
CELL_PARAMETERS angstrom
     10.8780060000       0.0000000000       0.0000000000
      0.0000000000      10.8780060000       0.0000000000
      0.0000000000       0.0000000000      10.8780060000
