&CONTROL
  calculation = 'scf'
  etot_conv_thr =   2.1600000000d-03
  forc_conv_thr =   1.0000000000d-04
  outdir = './out/'
  prefix = 'aiida'
  pseudo_dir = './pseudo/'
  tprnfor = .true.
  !tstress = .true.
  verbosity = 'high'
  disk_io   = 'high'
  max_seconds = 14400
/
&SYSTEM
  degauss =   1.4699723600d-02
  ecutwfc =   10.0000000000d+01
  ibrav = 0
  nat = 215
  nosym = .false.
  ntyp = 2
  occupations = 'smearing'
  smearing = 'mv'
  tot_charge = 1
  nspin = 2
  starting_magnetization(1) =  0.5
  starting_magnetization(2) = -0.5
  input_dft = 'pbe0'
  exx_fraction = 0.23
  ecutfock = 120
  ace = .true.
  localization_thr = 0.001
/
&ELECTRONS
  conv_thr =   4.3200000000d-08
  electron_maxstep = 80
  mixing_beta =   4.0000000000d-01
  adaptive_thr = .True.
  conv_thr_init = 1.D-3 
  conv_thr_multi = 1.D-2
/
&IONS
/
ATOMIC_SPECIES
B      10.811 B_ONCV_PBE-1.2.upf
N      14.0067 N_ONCV_PBE-1.2.upf
ATOMIC_POSITIONS (angstrom)
B            -0.0000000000        0.0000000000        3.6237188401
B             0.0000000000        0.0000000000        7.2542871599
B            -0.0000000000        3.6237188401       -0.0000000000
B             0.0040581336        3.6288406651        3.6288406651
B            -0.0040581336        3.6288406651        7.2491653349
B             0.0000000000        7.2542871599        0.0000000000
B            -0.0040581336        7.2491653349        3.6288406651
B             0.0040581336        7.2491653349        7.2491653349
B             3.6237188401        0.0000000000        0.0000000000
B             3.6288406651        0.0040581336        3.6288406651
B             3.6288406651       -0.0040581336        7.2491653349
B             3.6288406651        3.6288406651        0.0040581336
B             3.6258132177        3.6258132177        3.6258132177
B             3.6262987204        3.6262987204        7.2517072796
B             3.6288406651        7.2491653349       -0.0040581336
B             3.6262987204        7.2517072796        3.6262987204
B             3.6258132177        7.2521927823        7.2521927823
B             7.2542871599        0.0000000000        0.0000000000
B             7.2491653349       -0.0040581336        3.6288406651
B             7.2491653349        0.0040581336        7.2491653349
B             7.2491653349        3.6288406651       -0.0040581336
B             7.2517072796        3.6262987204        3.6262987204
B             7.2521927823        3.6258132177        7.2521927823
B             7.2491653349        7.2491653349        0.0040581336
B             7.2521927823        7.2521927823        3.6258132177
B             7.2517072796        7.2517072796        7.2517072796
B             0.0054316492        1.8051719081        1.8051719081
B             0.0000000000        1.8129718042        5.4390030000
B            -0.0054316492        1.8051719081        9.0728340919
B            -0.0000000000        5.4390030000        1.8129718042
B             0.0000000000        5.4390030000        5.4390030000
B             0.0000000000        5.4390030000        9.0650341958
B            -0.0054316492        9.0728340919        1.8051719081
B             0.0000000000        9.0650341958        5.4390030000
B             0.0054316492        9.0728340919        9.0728340919
B             3.6252403570        1.8131046880        1.8131046880
B             3.6263612388        1.8132543255        5.4383091026
B             3.6288817181        1.8141428561        9.0638631439
B             3.6263612388        5.4383091026        1.8132543255
B             3.6256667624        5.4390030000        5.4390030000
B             3.6263612388        5.4396968974        9.0647516745
B             3.6288817181        9.0638631439        1.8141428561
B             3.6263612388        9.0647516745        5.4396968974
B             3.6252403570        9.0649013120        9.0649013120
B             7.2491242819        1.8141428561        1.8141428561
B             7.2516447612        1.8132543255        5.4396968974
B             7.2527656430        1.8131046880        9.0649013120
B             7.2516447612        5.4396968974        1.8132543255
B             7.2523392376        5.4390030000        5.4390030000
B             7.2516447612        5.4383091026        9.0647516745
B             7.2527656430        9.0649013120        1.8131046880
B             7.2516447612        9.0647516745        5.4383091026
B             7.2491242819        9.0638631439        9.0638631439
B             1.8051719081        0.0054316492        1.8051719081
B             1.8129718042       -0.0000000000        5.4390030000
B             1.8051719081       -0.0054316492        9.0728340919
B             1.8131046880        3.6252403570        1.8131046880
B             1.8132543255        3.6263612388        5.4383091026
B             1.8141428561        3.6288817181        9.0638631439
B             1.8141428561        7.2491242819        1.8141428561
B             1.8132543255        7.2516447612        5.4396968974
B             1.8131046880        7.2527656430        9.0649013120
B             5.4390030000        0.0000000000        1.8129718042
B             5.4390030000        0.0000000000        5.4390030000
B             5.4390030000        0.0000000000        9.0650341958
B             5.4383091026        3.6263612388        1.8132543255
B             5.4390030000        3.6256667624        5.4390030000
B             5.4396968974        3.6263612388        9.0647516745
B             5.4396968974        7.2516447612        1.8132543255
B             5.4390030000        7.2523392376        5.4390030000
B             5.4383091026        7.2516447612        9.0647516745
B             9.0728340919       -0.0054316492        1.8051719081
B             9.0650341958       -0.0000000000        5.4390030000
B             9.0728340919        0.0054316492        9.0728340919
B             9.0638631439        3.6288817181        1.8141428561
B             9.0647516745        3.6263612388        5.4396968974
B             9.0649013120        3.6252403570        9.0649013120
B             9.0649013120        7.2527656430        1.8131046880
B             9.0647516745        7.2516447612        5.4383091026
B             9.0638631439        7.2491242819        9.0638631439
B             1.8051719081        1.8051719081        0.0054316492
B             1.8131046880        1.8131046880        3.6252403570
B             1.8141428561        1.8141428561        7.2491242819
B             1.8129718042        5.4390030000       -0.0000000000
B             1.8132543255        5.4383091026        3.6263612388
B             1.8132543255        5.4396968974        7.2516447612
B             1.8051719081        9.0728340919       -0.0054316492
B             1.8141428561        9.0638631439        3.6288817181
B             1.8131046880        9.0649013120        7.2527656430
B             5.4390030000        1.8129718042       -0.0000000000
B             5.4383091026        1.8132543255        3.6263612388
B             5.4396968974        1.8132543255        7.2516447612
B             5.4390030000        5.4390030000        0.0000000000
B             5.4390030000        5.4390030000        3.6256667624
B             5.4390030000        5.4390030000        7.2523392376
B             5.4390030000        9.0650341958       -0.0000000000
B             5.4396968974        9.0647516745        3.6263612388
B             5.4383091026        9.0647516745        7.2516447612
B             9.0728340919        1.8051719081       -0.0054316492
B             9.0638631439        1.8141428561        3.6288817181
B             9.0649013120        1.8131046880        7.2527656430
B             9.0650341958        5.4390030000        0.0000000000
B             9.0647516745        5.4396968974        3.6263612388
B             9.0647516745        5.4383091026        7.2516447612
B             9.0728340919        9.0728340919        0.0054316492
B             9.0649013120        9.0649013120        3.6252403570
B             9.0638631439        9.0638631439        7.2491242819
N             0.9055920926        0.9055920926        2.7182217195
N             0.9069144973        0.9069144973        6.3456673468
N             0.9906913192        0.9906913192        9.8873146808
N             0.9070180543        4.5328073791        2.7198009930
N             0.9079681812        4.5340852950        6.3439207050
N             0.9069144973        4.5323386532        9.9710915027
N             0.9125915756        8.1484342759        2.7295717241
N             0.9070180543        8.1582050070        6.3451986209
N             0.9055920926        8.1597842805        9.9724139074
N             4.5328073791        0.9070180543        2.7198009930
N             4.5340852950        0.9079681812        6.3439207050
N             4.5323386532        0.9069144973        9.9710915027
N             4.5324370386        4.5324370386        2.7199829547
N             4.5331237659        4.5331237659        6.3448822341
N             4.5340852950        4.5340852950        9.9700378188
N             4.5351590370        8.1565139659        2.7214920341
N             4.5324370386        8.1580230453        6.3455689614
N             4.5328073791        8.1582050070        9.9709879457
N             8.1484342759        0.9125915756        2.7295717241
N             8.1582050070        0.9070180543        6.3451986209
N             8.1597842805        0.9055920926        9.9724139074
N             8.1565139659        4.5351590370        2.7214920341
N             8.1580230453        4.5324370386        6.3455689614
N             8.1582050070        4.5328073791        9.9709879457
N             8.1591731611        8.1591731611        2.7188328389
N             8.1565139659        8.1565139659        6.3428469630
N             8.1484342759        8.1484342759        9.9654144244
N             0.9055920926        2.7182217195        0.9055920926
N             0.9070180543        2.7198009930        4.5328073791
N             0.9125915756        2.7295717241        8.1484342759
N             0.9069144973        6.3456673468        0.9069144973
N             0.9079681812        6.3439207050        4.5340852950
N             0.9070180543        6.3451986209        8.1582050070
N             0.9906913192        9.8873146808        0.9906913192
N             0.9069144973        9.9710915027        4.5323386532
N             0.9055920926        9.9724139074        8.1597842805
N             4.5328073791        2.7198009930        0.9070180543
N             4.5324370386        2.7199829547        4.5324370386
N             4.5351590370        2.7214920341        8.1565139659
N             4.5340852950        6.3439207050        0.9079681812
N             4.5331237659        6.3448822341        4.5331237659
N             4.5324370386        6.3455689614        8.1580230453
N             4.5323386532        9.9710915027        0.9069144973
N             4.5340852950        9.9700378188        4.5340852950
N             4.5328073791        9.9709879457        8.1582050070
N             8.1484342759        2.7295717241        0.9125915756
N             8.1565139659        2.7214920341        4.5351590370
N             8.1591731611        2.7188328389        8.1591731611
N             8.1582050070        6.3451986209        0.9070180543
N             8.1580230453        6.3455689614        4.5324370386
N             8.1565139659        6.3428469630        8.1565139659
N             8.1597842805        9.9724139074        0.9055920926
N             8.1582050070        9.9709879457        4.5328073791
N             8.1484342759        9.9654144244        8.1484342759
N             2.7182217195        0.9055920926        0.9055920926
N             2.7198009930        0.9070180543        4.5328073791
N             2.7295717241        0.9125915756        8.1484342759
N             2.7198009930        4.5328073791        0.9070180543
N             2.7199829547        4.5324370386        4.5324370386
N             2.7214920341        4.5351590370        8.1565139659
N             2.7295717241        8.1484342759        0.9125915756
N             2.7214920341        8.1565139659        4.5351590370
N             2.7188328389        8.1591731611        8.1591731611
N             6.3456673468        0.9069144973        0.9069144973
N             6.3439207050        0.9079681812        4.5340852950
N             6.3451986209        0.9070180543        8.1582050070
N             6.3439207050        4.5340852950        0.9079681812
N             6.3448822341        4.5331237659        4.5331237659
N             6.3455689614        4.5324370386        8.1580230453
N             6.3451986209        8.1582050070        0.9070180543
N             6.3455689614        8.1580230453        4.5324370386
N             6.3428469630        8.1565139659        8.1565139659
N             9.8873146808        0.9906913192        0.9906913192
N             9.9710915027        0.9069144973        4.5323386532
N             9.9724139074        0.9055920926        8.1597842805
N             9.9710915027        4.5323386532        0.9069144973
N             9.9700378188        4.5340852950        4.5340852950
N             9.9709879457        4.5328073791        8.1582050070
N             9.9724139074        8.1597842805        0.9055920926
N             9.9709879457        8.1582050070        4.5328073791
N             9.9654144244        8.1484342759        8.1484342759
N             2.7188328389        2.7188328389        2.7188328389
N             2.7214920341        2.7214920341        6.3428469630
N             2.7295717241        2.7295717241        9.9654144244
N             2.7214920341        6.3428469630        2.7214920341
N             2.7199829547        6.3455689614        6.3455689614
N             2.7198009930        6.3451986209        9.9709879457
N             2.7295717241        9.9654144244        2.7295717241
N             2.7198009930        9.9709879457        6.3451986209
N             2.7182217195        9.9724139074        9.9724139074
N             6.3428469630        2.7214920341        2.7214920341
N             6.3455689614        2.7199829547        6.3455689614
N             6.3451986209        2.7198009930        9.9709879457
N             6.3455689614        6.3455689614        2.7199829547
N             6.3448822341        6.3448822341        6.3448822341
N             6.3439207050        6.3439207050        9.9700378188
N             6.3451986209        9.9709879457        2.7198009930
N             6.3439207050        9.9700378188        6.3439207050
N             6.3456673468        9.9710915027        9.9710915027
N             9.9654144244        2.7295717241        2.7295717241
N             9.9709879457        2.7198009930        6.3451986209
N             9.9724139074        2.7182217195        9.9724139074
N             9.9709879457        6.3451986209        2.7198009930
N             9.9700378188        6.3439207050        6.3439207050
N             9.9710915027        6.3456673468        9.9710915027
N             9.9724139074        9.9724139074        2.7182217195
N             9.9710915027        9.9710915027        6.3456673468
N             9.8873146808        9.8873146808        9.8873146808
K_POINTS gamma
CELL_PARAMETERS angstrom
     10.8780060000       0.0000000000       0.0000000000
      0.0000000000      10.8780060000       0.0000000000
      0.0000000000       0.0000000000      10.8780060000
