&CONTROL
  calculation = 'scf'
  etot_conv_thr =   2.1600000000d-03
  forc_conv_thr =   1.0000000000d-04
  outdir = './out/'
  prefix = 'aiida'
  pseudo_dir = './pseudo/'
  tprnfor = .true.
  !tstress = .true.
  verbosity = 'high'
  disk_io   = 'high'
  max_seconds = 14400
/
&SYSTEM
  degauss =   1.4699723600d-02
  ecutwfc =   10.0000000000d+01
  ibrav = 0
  nat = 214
  nosym = .false.
  ntyp = 2
  occupations = 'smearing'
  smearing = 'mv'
  tot_charge = 2
  nspin = 2
  starting_magnetization(1) =  0.5
  starting_magnetization(2) = -0.5
  input_dft = 'pbe0'
  exx_fraction = 0.23
  ecutfock = 120
  ace = .true.
  localization_thr = 0.001
/
&ELECTRONS
  conv_thr =   4.3200000000d-08
  electron_maxstep = 80
  mixing_beta =   4.0000000000d-01
  adaptive_thr = .True.
  conv_thr_init = 1.D-3 
  conv_thr_multi = 1.D-2
/
&IONS
/
ATOMIC_SPECIES
B      10.811 B_ONCV_PBE-1.2.upf
N      14.0067 N_ONCV_PBE-1.2.upf
ATOMIC_POSITIONS (angstrom)
B             0.0078116160        0.0078116160       -0.0122968116
B            -0.0052401850       -0.0052401850        7.2499037775
B            -0.0305132011        3.6597983209       -0.0337951536
B             0.0078116735        3.6382999687        3.6181915411
B            -0.0016506171        3.6264039894        7.2548036383
B            -0.0016505596        7.2492020373       -0.0004008323
B            -0.0052402425        7.2541018981        3.6312433421
B            -0.0020030120        7.2504173085        7.2535883773
B             3.6597983209       -0.0305132011       -0.0337951536
B             3.6382999687        0.0078116735        3.6181915411
B             3.6264039894       -0.0016506171        7.2548036383
B             3.6209795809        3.6209795809        0.0050236337
B             3.6597983519        3.6597983519        3.6565163994
B             3.6333134481        3.6333134481        7.2659397258
B             3.6333133970        7.2380659089       -0.0073102974
B             3.6264040405        7.2492019964        3.6276537678
B             3.6296786361        7.2512724612        7.2527331422
B             7.2492020373       -0.0016505596       -0.0004008323
B             7.2541018981       -0.0052402425        3.6312433421
B             7.2504173085       -0.0020030120        7.2535883773
B             7.2380659089        3.6333133970       -0.0073102974
B             7.2492019964        3.6264040405        3.6276537678
B             7.2512724612        3.6296786361        7.2527331422
B             7.2512725024        7.2512725024       -0.0036753803
B             7.2504172673        7.2504172673        3.6280062678
B             7.2536086476        7.2536086476        7.2503969360
B            -0.2069639272        2.0081898690        1.6178097600
B            -0.0055021049        1.7857200262        5.4398912513
B            -0.0052940776        1.8129455902        9.0536469041
B            -0.0052940094        5.4503622814        1.8130540306
B            -0.0008409649        5.4417957136        5.4387947776
B            -0.0054671167        5.4436588221        9.0603503716
B            -0.0055021731        9.0641179342        1.8402795946
B            -0.0030799048        9.0715106122        5.4324985815
B            -0.0008408967        9.0652144079        9.0622134719
B             3.6403348327        1.8002066291        1.8257929663
B             3.6578885707        1.8358465709        5.4754011077
B             3.6227970301        1.8105487907        9.0654687259
B             3.6227969799        5.4385405587        1.8154507633
B             3.6354883403        5.4507600434        5.4505582906
B             3.6273379919        5.4364106497        9.0675985117
B             3.6578886209        9.0286081769        1.7901529831
B             3.6245158901        9.0636472132        5.4403619482
B             3.6354884028        9.0534509117        9.0532491589
B             7.2473348688        1.8091215853        1.8168779465
B             7.2518274020        1.8128714636        5.4441036584
B             7.2448486127        1.8165894749        9.0613597047
B             7.2448486747        5.4426494471        1.8094101109
B             7.2548554434        5.4424495268        5.4411130247
B             7.2486813233        5.4426798071        9.0613294553
B             7.2518273400        9.0599054934        1.8131281222
B             7.2549566700        9.0657367270        5.4382725354
B             7.2548553927        9.0628962094        9.0615597073
B             2.0081898690       -0.2069639272        1.6178097600
B             1.7857200262       -0.0055021049        5.4398912513
B             1.8129455902       -0.0052940776        9.0536469041
B             1.8002066291        3.6403348327        1.8257929663
B             1.8358465709        3.6578885707        5.4754011077
B             1.8105487907        3.6227970301        9.0654687259
B             1.8091215853        7.2473348688        1.8168779465
B             1.8128714636        7.2518274020        5.4441036584
B             1.8165894749        7.2448486127        9.0613597047
B             5.4503622814       -0.0052940094        1.8130540306
B             5.4417957136       -0.0008409649        5.4387947776
B             5.4436588221       -0.0054671167        9.0603503716
B             5.4385405587        3.6227969799        1.8154507633
B             5.4507600434        3.6354883403        5.4505582906
B             5.4364106497        3.6273379919        9.0675985117
B             5.4426494471        7.2448486747        1.8094101109
B             5.4424495268        7.2548554434        5.4411130247
B             5.4426798071        7.2486813233        9.0613294553
B             9.0641179342       -0.0055021731        1.8402795946
B             9.0715106122       -0.0030799048        5.4324985815
B             9.0652144079       -0.0008408967        9.0622134719
B             9.0286081769        3.6578886209        1.7901529831
B             9.0636472132        3.6245158901        5.4403619482
B             9.0534509117        3.6354884028        9.0532491589
B             9.0599054934        7.2518273400        1.8131281222
B             9.0657367270        7.2549566700        5.4382725354
B             9.0628962094        7.2548553927        9.0615597073
B             1.8002066459        1.8002066459       -0.0143315382
B             2.0081898522        2.0081898522        3.8329672217
B             1.8091215853        1.8091215853        7.2566707022
B             1.8105488311        5.4385405082        0.0032061844
B             1.8129455638        5.4503623319        3.6312971737
B             1.8165894653        5.4426494471        7.2591569967
B             1.8358465973        9.0286081283       -0.0318854746
B             1.7857199858        9.0641179828        3.6315053194
B             1.8128714732        9.0599054934        7.2521782074
B             5.4385405082        1.8105488311        0.0032061844
B             5.4503623319        1.8129455638        3.6312971737
B             5.4426494471        1.8165894653        7.2591569967
B             5.4364107002        5.4364107002       -0.0013348276
B             5.4436588221        5.4436588221        3.6314702805
B             5.4426797566        5.4426797566        7.2553243486
B             5.4507600434        9.0534509031       -0.0094851765
B             5.4417956631        9.0652144343        3.6268441292
B             5.4424495773        9.0628961872        7.2491502285
B             9.0286081283        1.8358465973       -0.0318854746
B             9.0641179828        1.7857199858        3.6315053194
B             9.0599054934        1.8128714732        7.2521782074
B             9.0534509031        5.4507600434       -0.0094851765
B             9.0652144343        5.4417956631        3.6268441292
B             9.0628961872        5.4424495773        7.2491502285
B             9.0636471868        9.0636471868        0.0014873424
B             9.0715106208        9.0715106208        3.6290831311
B             9.0657367492        9.0657367492        7.2490489512
N             0.9051653812        0.9051653812        6.3457068537
N             0.9051954453        0.9051954453        9.9700343583
N             0.9051953602        4.5339714220        2.7208076581
N             0.9083336071        4.5319099764        6.3472194845
N             0.9032482170        4.5301157778        9.9738898102
N             0.9051652708        8.1583023811        2.7208377960
N             0.9102480204        8.1483413468        6.3556677695
N             0.9083334166        8.1567899021        9.9720955608
N             4.5339714220        0.9051953602        2.7208076581
N             4.5319099764        0.9083336071        6.3472194845
N             4.5301157778        0.9032482170        9.9738898102
N             4.5301159327        4.5301159327        2.7227552509
N             4.5349601237        4.5349601237        6.3508542803
N             4.5270040896        4.5270040896        9.9770012571
N             4.5319099974        8.1567897073        2.7176698544
N             4.5332531251        8.1592490126        6.3447597766
N             4.5349603253        8.1531550376        9.9690455401
N             8.1583023811        0.9051652708        2.7208377960
N             8.1483413468        0.9102480204        6.3556677695
N             8.1567899021        0.9083334166        9.9720955608
N             8.1567897073        4.5319099974        2.7176698544
N             8.1592490126        4.5332531251        6.3447597766
N             8.1531550376        4.5349603253        9.9690455401
N             8.1483412621        8.1483412621        2.7157550826
N             8.1596455177        8.1596455177        6.3443636531
N             8.1592493033        8.1592493033        9.9707527282
N             0.8989423795        2.7004423369        0.9255607393
N             0.9103689116        2.7022423077        4.5165625756
N             0.9053471139        2.7180653187        8.1598867674
N             0.9053472243        6.3441224674        0.9079378585
N             0.9070370406        6.3450586480        4.5338130812
N             0.9070066099        6.3422981282        8.1617109881
N             0.9103689967        9.9874432047        0.9237607957
N             0.9744604341        9.8985987956        4.6054067924
N             0.9070368501        9.9701924560        8.1589507386
N             4.5215283628        2.7101186536        0.9158843647
N             4.5383712497        2.7244027516        4.5403171658
N             4.5299940808        2.7184886334        8.1652062076
N             4.5299940598        6.3388029842        0.9075148281
N             4.5346764463        6.3467228848        4.5344320659
N             4.5329392824        6.3434544242        8.1605543650
N             4.5383710948        9.9636885771        0.9016007163
N             4.5236587967        9.9771931841        4.5268121626
N             4.5346766479        9.9695735979        8.1572864331
N             8.1506608050        2.7237284886        0.9022745782
N             8.1534541862        2.7247458371        4.5324612554
N             8.1545365450        2.7218329200        8.1593803505
N             8.1545366297        6.3446286811        0.9041701830
N             8.1601509371        6.3436353796        4.5316682451
N             8.1583818143        6.3466107227        8.1573984481
N             8.1534543810        9.9715443028        0.9012574339
N             8.1593536943        9.9723728440        4.5316330214
N             8.1601512278        9.9723376082        8.1603737003
N             2.7004423369        0.8989423795        0.9255607393
N             2.7022423077        0.9103689116        4.5165625756
N             2.7180653187        0.9053471139        8.1598867674
N             2.7101186536        4.5215283628        0.9158843647
N             2.7244027516        4.5383712497        4.5403171658
N             2.7184886334        4.5299940808        8.1652062076
N             2.7237284886        8.1506608050        0.9022745782
N             2.7247458371        8.1534541862        4.5324612554
N             2.7218329200        8.1545365450        8.1593803505
N             6.3441224674        0.9053472243        0.9079378585
N             6.3450586480        0.9070370406        4.5338130812
N             6.3422981282        0.9070066099        8.1617109881
N             6.3388029842        4.5299940598        0.9075148281
N             6.3467228848        4.5346764463        4.5344320659
N             6.3434544242        4.5329392824        8.1605543650
N             6.3446286811        8.1545366297        0.9041701830
N             6.3436353796        8.1601509371        4.5316682451
N             6.3466107227        8.1583818143        8.1573984481
N             9.9874432047        0.9103689967        0.9237607957
N             9.8985987956        0.9744604341        4.6054067924
N             9.9701924560        0.9070368501        8.1589507386
N             9.9636885771        4.5383710948        0.9016007163
N             9.9771931841        4.5236587967        4.5268121626
N             9.9695735979        4.5346766479        8.1572864331
N             9.9715443028        8.1534543810        0.9012574339
N             9.9723728440        8.1593536943        4.5316330214
N             9.9723376082        8.1601512278        8.1603737003
N             2.7004424913        2.7004424913        2.7270608511
N             2.7237285892        2.7237285892        6.3533484664
N             2.7101186781        2.7101186781        9.9824774786
N             2.7180654193        6.3441225040        2.7206560535
N             2.7218331505        6.3446286692        6.3494724747
N             2.7184885083        6.3388027836        9.9740116050
N             2.7022423322        9.9874432658        2.7156341312
N             2.7247457120        9.9715444304        6.3505548050
N             2.7244023667        9.9636885839        9.9656345000
N             6.3441225040        2.7180654193        2.7206560535
N             6.3446286692        2.7218331505        6.3494724747
N             6.3388027836        2.7184885083        9.9740116050
N             6.3422981163        6.3422981163        2.7189967236
N             6.3466107447        6.3466107447        6.3456273785
N             6.3434546367        6.3434546367        9.9710662768
N             6.3450584474        9.9701925836        2.7189662958
N             6.3436355921        9.9723373141        6.3438580646
N             6.3467228262        9.9695734635        9.9693290831
N             9.9874432658        2.7022423322        2.7156341312
N             9.9715444304        2.7247457120        6.3505548050
N             9.9636885839        2.7244023667        9.9656345000
N             9.9701925836        6.3450584474        2.7189662958
N             9.9723373141        6.3436355921        6.3438580646
N             9.9695734635        6.3467228262        9.9693290831
N             9.8985988024        9.8985988024        2.6515426489
N             9.9723727096        9.9723727096        6.3446555650
N             9.9771934171        9.9771934171        9.9803467830
K_POINTS gamma
CELL_PARAMETERS angstrom
     10.8780060000       0.0000000000       0.0000000000
      0.0000000000      10.8780060000       0.0000000000
      0.0000000000       0.0000000000      10.8780060000
