&CONTROL
  calculation = 'scf'
  etot_conv_thr =   2.1600000000d-03
  forc_conv_thr =   1.0000000000d-04
  outdir = './out/'
  prefix = 'aiida'
  pseudo_dir = './pseudo/'
  tprnfor = .true.
  !tstress = .true.
  verbosity = 'high'
  disk_io   = 'high'
  max_seconds = 14400
/
&SYSTEM
  degauss =   1.4699723600d-02
  ecutwfc =   10.0000000000d+01
  ibrav = 0
  nat = 217
  nosym = .false.
  ntyp = 2
  occupations = 'smearing'
  smearing = 'mv'
  tot_charge = 1
  nspin = 2
  starting_magnetization(1) =  0.5
  starting_magnetization(2) = -0.5
  input_dft = 'pbe0'
  exx_fraction = 0.23
  ecutfock = 120
  ace = .true.
  localization_thr = 0.001
/
&ELECTRONS
  conv_thr =   4.3200000000d-08
  electron_maxstep = 80
  mixing_beta =   4.0000000000d-01
  adaptive_thr = .True.
  conv_thr_init = 1.D-3 
  conv_thr_multi = 1.D-2
/
&IONS
/
ATOMIC_SPECIES
B      10.811 B_ONCV_PBE-1.2.upf
N      14.0067 N_ONCV_PBE-1.2.upf
ATOMIC_POSITIONS (angstrom)
B            -0.1672577285        0.2286888075       -0.1672577285
B             0.0096625553        0.0046462248        3.6383881978
B            -0.0043041471        0.0069640410        7.2454057093
B            -0.0070000113        3.6422834330       -0.0070000113
B            -0.0025505934        3.6411772014        3.6368832034
B            -0.0037173489        3.6391666647        7.2387739577
B            -0.0173328965        7.2048483530       -0.0173328965
B            -0.0043128948        7.2131365721        3.6649327024
B            -0.0024465190        7.2508331135        7.2463051875
B             3.6383881978        0.0046462248        0.0096625553
B             3.6525455484        0.0118675386        3.6525455484
B             3.6272388809        0.0031984675        7.2534469588
B             3.6368832034        3.6411772014       -0.0025505934
B             3.6386091451        3.6409399132        3.6386091451
B             3.6298729898        3.6300817546        7.2519451345
B             3.6649327024        7.2131365721       -0.0043128948
B             3.6317675738        7.2521048133        3.6317675738
B             3.6318467531        7.2529038874        7.2480476020
B             7.2454057093        0.0069640410       -0.0043041471
B             7.2534469588        0.0031984675        3.6272388809
B             7.2461019660        0.0047570132        7.2461019660
B             7.2387739577        3.6391666647       -0.0037173489
B             7.2519451345        3.6300817546        3.6298729898
B             7.2482892640        3.6317347106        7.2482892640
B             7.2463051875        7.2508331135       -0.0024465190
B             7.2480476020        7.2529038874        3.6318467531
B             7.2498707172        7.2557924493        7.2498707172
B            -0.0119152121        1.8665081893        1.8244380810
B            -0.0008348590        1.8212033802        5.4426446229
B            -0.0162301452        1.8679713419        9.0155816019
B            -0.0054077475        5.4335433411        1.8183290503
B            -0.0017823354        5.4362786115        5.4480310227
B            -0.0052112919        5.4324673567        9.0516540432
B            -0.0733838875        8.8591832932        1.8875098499
B            -0.0021518625        9.0652223262        5.4425314313
B             0.0017822960        9.0646388545        9.0498841957
B             3.6748776379        1.8674167939        1.8294867953
B             3.6351165814        1.8220076685        5.4498456041
B             3.6279652382        1.8185361501        9.0628569602
B             3.6392774912        5.4323333738        1.8181099627
B             3.6312216963        5.4442694599        5.4431330021
B             3.6333699222        5.4359265208        9.0574738593
B             3.6417803930        9.0640817367        1.8113355454
B             3.6302423746        9.0681691551        5.4433688212
B             3.6296351502        9.0585393024        9.0613462278
B             7.2480164187        1.8212568422        1.8137271510
B             7.2518209459        1.8174152592        5.4390560201
B             7.2409737861        1.8219945870        9.0558505937
B             7.2426846895        5.4363661398        1.8145585769
B             7.2502885052        5.4426544955        5.4405668901
B             7.2477395309        5.4443145983        9.0596468765
B             7.2485491854        9.0653051149        1.8149610836
B             7.2517323541        9.0669864441        5.4392068489
B             7.2477371635        9.0681721273        9.0607536896
B             1.9806292491        0.2263608590        1.9806292491
B             1.8172262557        0.0068806815        5.4455399702
B             1.8032385578        0.0051268682        9.0528400540
B             1.8199189878        3.6422537163        1.8199189878
B             1.8166300453        3.6389656927        5.4517390243
B             1.8153646567        3.6413140311        9.0537007268
B             1.8307005410        7.2044543298        1.8307005410
B             1.8152044114        7.2507481259        5.4445391045
B             1.8171484969        7.2134322618        9.0263823790
B             5.4455399702        0.0068806815        1.8172262557
B             5.4448487412        0.0048326455        5.4448487412
B             5.4375022334        0.0031528717        9.0636552890
B             5.4517390243        3.6389656927        1.8166300453
B             5.4425733707        3.6317487161        5.4425733707
B             5.4388192360        3.6300250933        9.0610035885
B             5.4445391045        7.2507481259        1.8152044114
B             5.4410514169        7.2557410822        5.4410514169
B             5.4428516413        7.2529001612        9.0589769161
B             9.0528400540        0.0051268682        1.8032385578
B             9.0636552890        0.0031528717        5.4375022334
B             9.0386977881        0.0120659923        9.0386977881
B             9.0537007268        3.6413140311        1.8153646567
B             9.0610035885        3.6300250933        5.4388192360
B             9.0523339899        3.6410195891        9.0523339899
B             9.0263823790        7.2134322618        1.8171484969
B             9.0589769161        7.2529001612        5.4428516413
B             9.0594298738        7.2522438546        9.0594298738
B             1.8244380810        1.8665081893       -0.0119152121
B             1.8294867953        1.8674167939        3.6748776379
B             1.8137271510        1.8212568422        7.2480164187
B             1.8183290503        5.4335433411       -0.0054077475
B             1.8181099627        5.4323333738        3.6392774912
B             1.8145585769        5.4363661398        7.2426846895
B             1.8875098499        8.8591832932       -0.0733838875
B             1.8113355454        9.0640817367        3.6417803930
B             1.8149610836        9.0653051149        7.2485491854
B             5.4426446229        1.8212033802       -0.0008348590
B             5.4498456041        1.8220076685        3.6351165814
B             5.4390560201        1.8174152592        7.2518209459
B             5.4480310227        5.4362786115       -0.0017823354
B             5.4431330021        5.4442694599        3.6312216963
B             5.4405668901        5.4426544955        7.2502885052
B             5.4425314313        9.0652223262       -0.0021518625
B             5.4433688212        9.0681691551        3.6302423746
B             5.4392068489        9.0669864441        7.2517323541
B             9.0155816019        1.8679713419       -0.0162301452
B             9.0628569602        1.8185361501        3.6279652382
B             9.0558505937        1.8219945870        7.2409737861
B             9.0516540432        5.4324673567       -0.0052112919
B             9.0574738593        5.4359265208        3.6333699222
B             9.0596468765        5.4443145983        7.2477395309
B             9.0498841957        9.0646388545        0.0017822960
B             9.0613462278        9.0585393024        3.6296351502
B             9.0607536896        9.0681721273        7.2477371635
N             0.9136591807        0.9808636540        2.7804628783
N             0.9065406511        0.9120273759        6.3453063127
N             0.8994405704        0.9827587074        9.9094125732
N             0.9075694749        4.5360878256        2.7253929515
N             0.9064873890        4.5370543797        6.3451601370
N             0.9055376752        4.5360695514        9.9653106475
N             0.9084089271        8.0868986807        2.7784710412
N             0.9065035052        8.1610447776        6.3453758078
N             0.9049288940        8.0876720899        9.9136584271
N             4.5463677830        0.9204062487        2.7277991234
N             4.5350321516        0.9100787228        6.3500089133
N             4.5292067044        0.9082848918        9.9726160063
N             4.5424318319        4.5370121153        2.7257905427
N             4.5352680732        4.5367858252        6.3468115529
N             4.5384765692        4.5362895847        9.9673623049
N             4.5346881342        8.1624253117        2.7227706657
N             4.5344708707        8.1626492301        6.3457694833
N             4.5380022994        8.1555006345        9.9695627822
N             8.1618269754        0.9082513253        2.7181523593
N             8.1560155853        0.9100218493        6.3407075769
N             8.1444158230        0.9206135839        9.9631578271
N             8.1523997678        4.5365429378        2.7233332094
N             8.1557286281        4.5367980911        6.3438623922
N             8.1484814008        4.5371698210        9.9649716814
N             8.1532828618        8.1556651683        2.7209768107
N             8.1565946017        8.1626713679        6.3450488866
N             8.1567005215        8.1625772363        9.9682082427
N             0.9067512153        2.7360012637        0.9067512153
N             0.9085758235        2.7436465776        4.5522673343
N             0.9047520016        2.7442145447        8.1379498477
N             0.9066238622        6.3338105732        0.9066238622
N             0.9070217584        6.3297668354        4.5519079497
N             0.9058769599        6.3299415498        8.1390512852
N             0.9084085375        9.3491342563        0.9084085375
N             0.9088932331        9.9750424273        4.5342618653
N             0.9044116183        9.9751770288        8.1572269672
N             4.5522673343        2.7436465776        0.9085758235
N             4.5390073699        2.7255839092        4.5390073699
N             4.5327304465        2.7219804393        8.1583347140
N             4.5519079497        6.3297668354        0.9070217584
N             4.5360068350        6.3503740168        4.5360068350
N             4.5356412463        6.3483009372        8.1554499471
N             4.5342618653        9.9750424273        0.9088932331
N             4.5414115486        9.9772229043        4.5414115486
N             4.5282010348        9.9730439146        8.1629314949
N             8.1379498477        2.7442145447        0.9047520016
N             8.1583347140        2.7219804393        4.5327304465
N             8.1521697315        2.7254014301        8.1521697315
N             8.1390512852        6.3299415498        0.9058769599
N             8.1554499471        6.3483009372        4.5356412463
N             8.1552714982        6.3503521894        8.1552714982
N             8.1572269672        9.9751770288        0.9044116183
N             8.1629314949        9.9730439146        4.5282010348
N             8.1499006183        9.9770458686        8.1499006183
N             2.7804628783        0.9808636540        0.9136591807
N             2.7277991234        0.9204062487        4.5463677830
N             2.7181523593        0.9082513253        8.1618269754
N             2.7253929515        4.5360878256        0.9075694749
N             2.7257905427        4.5370121153        4.5424318319
N             2.7233332094        4.5365429378        8.1523997678
N             2.7784710412        8.0868986807        0.9084089271
N             2.7227706657        8.1624253117        4.5346881342
N             2.7209768107        8.1556651683        8.1532828618
N             6.3453063127        0.9120273759        0.9065406511
N             6.3500089133        0.9100787228        4.5350321516
N             6.3407075769        0.9100218493        8.1560155853
N             6.3451601370        4.5370543797        0.9064873890
N             6.3468115529        4.5367858252        4.5352680732
N             6.3438623922        4.5367980911        8.1557286281
N             6.3453758078        8.1610447776        0.9065035052
N             6.3457694833        8.1626492301        4.5344708707
N             6.3450488866        8.1626713679        8.1565946017
N             9.9094125732        0.9827587074        0.8994405704
N             9.9726160063        0.9082848918        4.5292067044
N             9.9631578271        0.9206135839        8.1444158230
N             9.9653106475        4.5360695514        0.9055376752
N             9.9673623049        4.5362895847        4.5384765692
N             9.9649716814        4.5371698210        8.1484814008
N             9.9136584271        8.0876720899        0.9049288940
N             9.9695627822        8.1555006345        4.5380022994
N             9.9682082427        8.1625772363        8.1567005215
N             2.7330119286        2.7444827030        2.7330119286
N             2.7232447209        2.7244266190        6.3498454006
N             2.7255359170        2.7390407331        9.9649630999
N             2.7303023795        6.3292181081        2.7303023795
N             2.7230728867        6.3489064282        6.3450793563
N             2.7286600821        6.3312754881        9.9621970583
N             2.7363649747        9.9956031403        2.7363649747
N             2.7201418968        9.9751025556        6.3469484222
N             2.6945379174        9.9612190595        9.9968219146
N             6.3498454006        2.7244266190        2.7232447209
N             6.3452950472        2.7229442152        6.3452950472
N             6.3405108595        2.7246036804        9.9673807148
N             6.3450793563        6.3489064282        2.7230728867
N             6.3453019510        6.3499197878        6.3453019510
N             6.3454527933        6.3489625162        9.9674634237
N             6.3469484222        9.9751025556        2.7201418968
N             6.3453217799        9.9751247052        6.3453217799
N             6.3437546178        9.9751245628        9.9705028817
N             9.9649630999        2.7390407331        2.7255359170
N             9.9673807148        2.7246036804        6.3405108595
N             9.9577334265        2.7447982575        9.9577334265
N             9.9621970583        6.3312754881        2.7286600821
N             9.9674634237        6.3489625162        6.3454527933
N             9.9608304955        6.3295374157        9.9608304955
N             9.9968219146        9.9612190595        2.6945379174
N             9.9705028817        9.9751245628        6.3437546178
N             9.9549584945        9.9963443113        9.9549584945
B             0.9050539467       -0.2888690019        0.9050539467
K_POINTS gamma
CELL_PARAMETERS angstrom
     10.8780060000       0.0000000000       0.0000000000
      0.0000000000      10.8780060000       0.0000000000
      0.0000000000       0.0000000000      10.8780060000
