&CONTROL
  calculation = 'scf'
  etot_conv_thr =   2.1600000000d-03
  forc_conv_thr =   1.0000000000d-04
  outdir = './out/'
  prefix = 'aiida'
  pseudo_dir = './pseudo/'
  tprnfor = .true.
  !tstress = .true.
  verbosity = 'high'
  disk_io   = 'high'
  max_seconds = 14400
/
&SYSTEM
  degauss =   1.4699723600d-02
  ecutwfc =   10.0000000000d+01
  ibrav = 0
  nat = 215
  nosym = .false.
  ntyp = 2
  occupations = 'smearing'
  smearing = 'mv'
  tot_charge = -2
  nspin = 2
  starting_magnetization(1) =  0.5
  starting_magnetization(2) = -0.5
  input_dft = 'pbe0'
  exx_fraction = 0.23
  ecutfock = 120
  ace = .true.
  localization_thr = 0.001
/
&ELECTRONS
  conv_thr =   4.3200000000d-08
  electron_maxstep = 80
  mixing_beta =   4.0000000000d-01
  adaptive_thr = .True.
  conv_thr_init = 1.D-3 
  conv_thr_multi = 1.D-2
/
&IONS
/
ATOMIC_SPECIES
B      10.811 B_ONCV_PBE-1.2.upf
N      14.0067 N_ONCV_PBE-1.2.upf
ATOMIC_POSITIONS (angstrom)
B             0.0892594108        0.0892594108        0.0892594108
B             0.0015521137        0.0015521137        3.6260274575
B            -0.0077955234       -0.0077955234        7.2615334023
B             0.0015521137        3.6260274575        0.0015521137
B            -0.0002682581        3.6303820642        3.6303820642
B            -0.0011847026        3.6201773424        7.2553770721
B            -0.0077955234        7.2615334023       -0.0077955234
B            -0.0011847026        7.2553770721        3.6201773424
B            -0.0064330360        7.2432046677        7.2432046677
B             3.6260274575        0.0015521137        0.0015521137
B             3.6303820642       -0.0002682581        3.6303820642
B             3.6201773424       -0.0011847026        7.2553770721
B             3.6303820642        3.6303820642       -0.0002682581
B             3.6263568412        3.6263568412        3.6263568412
B             3.6238254955        3.6238254955        7.2519274837
B             3.6201773424        7.2553770721       -0.0011847026
B             3.6238254955        7.2519274837        3.6238254955
B             3.6194222546        7.2507174460        7.2507174460
B             7.2615334023       -0.0077955234       -0.0077955234
B             7.2553770721       -0.0011847026        3.6201773424
B             7.2432046677       -0.0064330360        7.2432046677
B             7.2553770721        3.6201773424       -0.0011847026
B             7.2519274837        3.6238254955        3.6238254955
B             7.2507174460        3.6194222546        7.2507174460
B             7.2432046677        7.2432046677       -0.0064330360
B             7.2507174460        7.2507174460        3.6194222546
B             7.2453153414        7.2453153414        7.2453153414
B             0.0040396705        1.8275259384        1.8275259384
B            -0.0013006664        1.8115743750        5.4443112113
B             0.0038397330        1.8028829064        9.0807560716
B            -0.0013006664        5.4443112113        1.8115743750
B            -0.0028816173        5.4397415095        5.4397415095
B            -0.0042623713        5.4398710494        9.0665929884
B             0.0038397330        9.0807560716        1.8028829064
B            -0.0042623713        9.0665929884        5.4398710494
B            -0.0675000892        9.0512564789        9.0512564789
B             3.6309566605        1.8168706111        1.8168706111
B             3.6253364334        1.8140887047        5.4434710221
B             3.6251683812        1.8149280916        9.0685672390
B             3.6253364334        5.4434710221        1.8140887047
B             3.6233746449        5.4403627850        5.4403627850
B             3.6204586610        5.4422533004        9.0655708089
B             3.6251683812        9.0685672390        1.8149280916
B             3.6204586610        9.0655708089        5.4422533004
B             3.6188553017        9.0691832533        9.0691832533
B             7.2556407375        1.8118402615        1.8118402615
B             7.2524813607        1.8120948750        5.4407737839
B             7.2629476061        1.8023319025        9.0651291686
B             7.2524813607        5.4407737839        1.8120948750
B             7.2496508282        5.4376881814        5.4376881814
B             7.2482053541        5.4347561462        9.0640184895
B             7.2629476061        9.0651291686        1.8023319025
B             7.2482053541        9.0640184895        5.4347561462
B             7.2413592186        9.0567868018        9.0567868018
B             1.8275259384        0.0040396705        1.8275259384
B             1.8115743750       -0.0013006664        5.4443112113
B             1.8028829064        0.0038397330        9.0807560716
B             1.8168706111        3.6309566605        1.8168706111
B             1.8140887047        3.6253364334        5.4434710221
B             1.8149280916        3.6251683812        9.0685672390
B             1.8118402615        7.2556407375        1.8118402615
B             1.8120948750        7.2524813607        5.4407737839
B             1.8023319025        7.2629476061        9.0651291686
B             5.4443112113       -0.0013006664        1.8115743750
B             5.4397415095       -0.0028816173        5.4397415095
B             5.4398710494       -0.0042623713        9.0665929884
B             5.4434710221        3.6253364334        1.8140887047
B             5.4403627850        3.6233746449        5.4403627850
B             5.4422533004        3.6204586610        9.0655708089
B             5.4407737839        7.2524813607        1.8120948750
B             5.4376881814        7.2496508282        5.4376881814
B             5.4347561462        7.2482053541        9.0640184895
B             9.0807560716        0.0038397330        1.8028829064
B             9.0665929884       -0.0042623713        5.4398710494
B             9.0512564789       -0.0675000892        9.0512564789
B             9.0685672390        3.6251683812        1.8149280916
B             9.0655708089        3.6204586610        5.4422533004
B             9.0691832533        3.6188553017        9.0691832533
B             9.0651291686        7.2629476061        1.8023319025
B             9.0640184895        7.2482053541        5.4347561462
B             9.0567868018        7.2413592186        9.0567868018
B             1.8275259384        1.8275259384        0.0040396705
B             1.8168706111        1.8168706111        3.6309566605
B             1.8118402615        1.8118402615        7.2556407375
B             1.8115743750        5.4443112113       -0.0013006664
B             1.8140887047        5.4434710221        3.6253364334
B             1.8120948750        5.4407737839        7.2524813607
B             1.8028829064        9.0807560716        0.0038397330
B             1.8149280916        9.0685672390        3.6251683812
B             1.8023319025        9.0651291686        7.2629476061
B             5.4443112113        1.8115743750       -0.0013006664
B             5.4434710221        1.8140887047        3.6253364334
B             5.4407737839        1.8120948750        7.2524813607
B             5.4397415095        5.4397415095       -0.0028816173
B             5.4403627850        5.4403627850        3.6233746449
B             5.4376881814        5.4376881814        7.2496508282
B             5.4398710494        9.0665929884       -0.0042623713
B             5.4422533004        9.0655708089        3.6204586610
B             5.4347561462        9.0640184895        7.2482053541
B             9.0807560716        1.8028829064        0.0038397330
B             9.0685672390        1.8149280916        3.6251683812
B             9.0651291686        1.8023319025        7.2629476061
B             9.0665929884        5.4398710494       -0.0042623713
B             9.0655708089        5.4422533004        3.6204586610
B             9.0640184895        5.4347561462        7.2482053541
B             9.0512564789        9.0512564789       -0.0675000892
B             9.0691832533        9.0691832533        3.6188553017
B             9.0567868018        9.0567868018        7.2413592186
N             0.9128113971        0.9128113971        2.7300748914
N             0.9032931609        0.9032931609        6.3514031358
N             0.9307119087        0.9307119087        9.9853509568
N             0.9074077312        4.5381372129        2.7215309213
N             0.9051249177        4.5321803311        6.3479053567
N             0.9060687067        4.5342048379        9.9715872688
N             0.9051093159        8.1628539577        2.7155519805
N             0.9015971952        8.1594524525        6.3482173321
N             0.8736890690        8.1856316016        9.9741349195
N             4.5381372129        0.9074077312        2.7215309213
N             4.5321803311        0.9051249177        6.3479053567
N             4.5342048379        0.9060687067        9.9715872688
N             4.5342015276        4.5342015276        2.7193440580
N             4.5315496695        4.5315496695        6.3455121377
N             4.5348879538        4.5348879538        9.9712979539
N             4.5335593074        8.1590873749        2.7176639286
N             4.5277503716        8.1577222583        6.3445406177
N             4.5292314092        8.1590708089        9.9703251341
N             8.1628539577        0.9051093159        2.7155519805
N             8.1594524525        0.9015971952        6.3482173321
N             8.1856316016        0.8736890690        9.9741349195
N             8.1590873749        4.5335593074        2.7176639286
N             8.1577222583        4.5277503716        6.3445406177
N             8.1590708089        4.5292314092        9.9703251341
N             8.1620086582        8.1620086582        2.7112747469
N             8.1525859621        8.1525859621        6.3371050890
N             8.1452206417        8.1452206417        9.9542906433
N             0.9128113971        2.7300748914        0.9128113971
N             0.9074077312        2.7215309213        4.5381372129
N             0.9051093159        2.7155519805        8.1628539577
N             0.9032931609        6.3514031358        0.9032931609
N             0.9051249177        6.3479053567        4.5321803311
N             0.9015971952        6.3482173321        8.1594524525
N             0.9307119087        9.9853509568        0.9307119087
N             0.9060687067        9.9715872688        4.5342048379
N             0.8736890690        9.9741349195        8.1856316016
N             4.5381372129        2.7215309213        0.9074077312
N             4.5342015276        2.7193440580        4.5342015276
N             4.5335593074        2.7176639286        8.1590873749
N             4.5321803311        6.3479053567        0.9051249177
N             4.5315496695        6.3455121377        4.5315496695
N             4.5277503716        6.3445406177        8.1577222583
N             4.5342048379        9.9715872688        0.9060687067
N             4.5348879538        9.9712979539        4.5348879538
N             4.5292314092        9.9703251341        8.1590708089
N             8.1628539577        2.7155519805        0.9051093159
N             8.1590873749        2.7176639286        4.5335593074
N             8.1620086582        2.7112747469        8.1620086582
N             8.1594524525        6.3482173321        0.9015971952
N             8.1577222583        6.3445406177        4.5277503716
N             8.1525859621        6.3371050890        8.1525859621
N             8.1856316016        9.9741349195        0.8736890690
N             8.1590708089        9.9703251341        4.5292314092
N             8.1452206417        9.9542906433        8.1452206417
N             2.7300748914        0.9128113971        0.9128113971
N             2.7215309213        0.9074077312        4.5381372129
N             2.7155519805        0.9051093159        8.1628539577
N             2.7215309213        4.5381372129        0.9074077312
N             2.7193440580        4.5342015276        4.5342015276
N             2.7176639286        4.5335593074        8.1590873749
N             2.7155519805        8.1628539577        0.9051093159
N             2.7176639286        8.1590873749        4.5335593074
N             2.7112747469        8.1620086582        8.1620086582
N             6.3514031358        0.9032931609        0.9032931609
N             6.3479053567        0.9051249177        4.5321803311
N             6.3482173321        0.9015971952        8.1594524525
N             6.3479053567        4.5321803311        0.9051249177
N             6.3455121377        4.5315496695        4.5315496695
N             6.3445406177        4.5277503716        8.1577222583
N             6.3482173321        8.1594524525        0.9015971952
N             6.3445406177        8.1577222583        4.5277503716
N             6.3371050890        8.1525859621        8.1525859621
N             9.9853509568        0.9307119087        0.9307119087
N             9.9715872688        0.9060687067        4.5342048379
N             9.9741349195        0.8736890690        8.1856316016
N             9.9715872688        4.5342048379        0.9060687067
N             9.9712979539        4.5348879538        4.5348879538
N             9.9703251341        4.5292314092        8.1590708089
N             9.9741349195        8.1856316016        0.8736890690
N             9.9703251341        8.1590708089        4.5292314092
N             9.9542906433        8.1452206417        8.1452206417
N             2.7227252214        2.7227252214        2.7227252214
N             2.7187306267        2.7187306267        6.3483785831
N             2.7300519227        2.7300519227        9.9736977659
N             2.7187306267        6.3483785831        2.7187306267
N             2.7161791586        6.3460787797        6.3460787797
N             2.7104609719        6.3523389737        9.9715894967
N             2.7300519227        9.9736977659        2.7300519227
N             2.7104609719        9.9715894967        6.3523389737
N             2.7152293263        9.9750556635        9.9750556635
N             6.3483785831        2.7187306267        2.7187306267
N             6.3460787797        2.7161791586        6.3460787797
N             6.3523389737        2.7104609719        9.9715894967
N             6.3460787797        6.3460787797        2.7161791586
N             6.3420650827        6.3420650827        6.3420650827
N             6.3406613927        6.3406613927        9.9685157948
N             6.3523389737        9.9715894967        2.7104609719
N             6.3406613927        9.9685157948        6.3406613927
N             6.3452973174        9.9674199305        9.9674199305
N             9.9736977659        2.7300519227        2.7300519227
N             9.9715894967        2.7104609719        6.3523389737
N             9.9750556635        2.7152293263        9.9750556635
N             9.9715894967        6.3523389737        2.7104609719
N             9.9685157948        6.3406613927        6.3406613927
N             9.9674199305        6.3452973174        9.9674199305
N             9.9750556635        9.9750556635        2.7152293263
N             9.9674199305        9.9674199305        6.3452973174
K_POINTS gamma
CELL_PARAMETERS angstrom
     10.8780060000       0.0000000000       0.0000000000
      0.0000000000      10.8780060000       0.0000000000
      0.0000000000       0.0000000000      10.8780060000
