&CONTROL
  calculation = 'scf'
  etot_conv_thr =   2.1600000000d-03
  forc_conv_thr =   1.0000000000d-04
  outdir = './out/'
  prefix = 'aiida'
  pseudo_dir = './pseudo/'
  tprnfor = .false.
  !tstress = .true.
  verbosity = 'high'
  disk_io   = 'high'
  max_seconds = 14400
  restart_mode = 'restart'
/
&SYSTEM
  degauss =   1.4699723600d-02
  ecutwfc =   10.0000000000d+01
  ibrav = 0
  nat = 215
  nosym = .false.
  ntyp = 2
  occupations = 'smearing'
  smearing = 'mv'
  tot_charge = 0
  nspin = 2
  starting_magnetization(1) =  0.5
  starting_magnetization(2) = -0.5
  input_dft = 'pbe0'
  exx_fraction = 0.23
  ecutfock = 120
  ace = .true.
  localization_thr = 0.001
/
&ELECTRONS
  conv_thr=1.0D-9
  adaptive_thr = .False.
  conv_thr_init = 1.D-3 
  conv_thr_multi = 1.D-5
  electron_maxstep=300
  mixing_mode = 'plain'
  mixing_beta = 0.6
  diagonalization = 'david'
  diago_full_acc = .TRUE.
  startingpot = 'file'
  startingwfc = 'file'
/
&IONS
/
ATOMIC_SPECIES
B      10.811 B_ONCV_PBE-1.2.upf
N      14.0067 N_ONCV_PBE-1.2.upf
ATOMIC_POSITIONS (angstrom)
B            -0.0000000000        0.0000000000        3.6226718200
B             0.0000000000        0.0000000000        7.2553341800
B             0.0000000000        3.6226718200        0.0000000000
B             0.0016224165        3.6286812165        3.6286812165
B            -0.0016224165        3.6286812165        7.2493247835
B             0.0000000000        7.2553341800        0.0000000000
B            -0.0016224165        7.2493247835        3.6286812165
B             0.0016224165        7.2493247835        7.2493247835
B             3.6226718200        0.0000000000       -0.0000000000
B             3.6286812165        0.0016224165        3.6286812165
B             3.6286812165       -0.0016224165        7.2493247835
B             3.6286812165        3.6286812165        0.0016224165
B             3.6255107034        3.6255107034        3.6255107034
B             3.6268672499        3.6268672499        7.2511387501
B             3.6286812165        7.2493247835       -0.0016224165
B             3.6268672499        7.2511387501        3.6268672499
B             3.6255107034        7.2524952966        7.2524952966
B             7.2553341800        0.0000000000        0.0000000000
B             7.2493247835       -0.0016224165        3.6286812165
B             7.2493247835        0.0016224165        7.2493247835
B             7.2493247835        3.6286812165       -0.0016224165
B             7.2511387501        3.6268672499        3.6268672499
B             7.2524952966        3.6255107034        7.2524952966
B             7.2493247835        7.2493247835        0.0016224165
B             7.2524952966        7.2524952966        3.6255107034
B             7.2511387501        7.2511387501        7.2511387501
B             0.0024261964        1.8057842168        1.8057842168
B            -0.0000000000        1.8127635688        5.4390030000
B            -0.0024261964        1.8057842168        9.0722217832
B            -0.0000000000        5.4390030000        1.8127635688
B             0.0000000000        5.4390030000        5.4390030000
B            -0.0000000000        5.4390030000        9.0652424312
B            -0.0024261964        9.0722217832        1.8057842168
B            -0.0000000000        9.0652424312        5.4390030000
B             0.0024261964        9.0722217832        9.0722217832
B             3.6242647380        1.8119713380        1.8119713380
B             3.6263558556        1.8134309349        5.4379990243
B             3.6287701022        1.8149877604        9.0630182396
B             3.6263558556        5.4379990243        1.8134309349
B             3.6259659535        5.4390030000        5.4390030000
B             3.6263558556        5.4400069757        9.0645750651
B             3.6287701022        9.0630182396        1.8149877604
B             3.6263558556        9.0645750651        5.4400069757
B             3.6242647380        9.0660346620        9.0660346620
B             7.2492358978        1.8149877604        1.8149877604
B             7.2516501444        1.8134309349        5.4400069757
B             7.2537412620        1.8119713380        9.0660346620
B             7.2516501444        5.4400069757        1.8134309349
B             7.2520400465        5.4390030000        5.4390030000
B             7.2516501444        5.4379990243        9.0645750651
B             7.2537412620        9.0660346620        1.8119713380
B             7.2516501444        9.0645750651        5.4379990243
B             7.2492358978        9.0630182396        9.0630182396
B             1.8057842168        0.0024261964        1.8057842168
B             1.8127635688       -0.0000000000        5.4390030000
B             1.8057842168       -0.0024261964        9.0722217832
B             1.8119713380        3.6242647380        1.8119713380
B             1.8134309349        3.6263558556        5.4379990243
B             1.8149877604        3.6287701022        9.0630182396
B             1.8149877604        7.2492358978        1.8149877604
B             1.8134309349        7.2516501444        5.4400069757
B             1.8119713380        7.2537412620        9.0660346620
B             5.4390030000        0.0000000000        1.8127635688
B             5.4390030000        0.0000000000        5.4390030000
B             5.4390030000        0.0000000000        9.0652424312
B             5.4379990243        3.6263558556        1.8134309349
B             5.4390030000        3.6259659535        5.4390030000
B             5.4400069757        3.6263558556        9.0645750651
B             5.4400069757        7.2516501444        1.8134309349
B             5.4390030000        7.2520400465        5.4390030000
B             5.4379990243        7.2516501444        9.0645750651
B             9.0722217832       -0.0024261964        1.8057842168
B             9.0652424312       -0.0000000000        5.4390030000
B             9.0722217832        0.0024261964        9.0722217832
B             9.0630182396        3.6287701022        1.8149877604
B             9.0645750651        3.6263558556        5.4400069757
B             9.0660346620        3.6242647380        9.0660346620
B             9.0660346620        7.2537412620        1.8119713380
B             9.0645750651        7.2516501444        5.4379990243
B             9.0630182396        7.2492358978        9.0630182396
B             1.8057842168        1.8057842168        0.0024261964
B             1.8119713380        1.8119713380        3.6242647380
B             1.8149877604        1.8149877604        7.2492358978
B             1.8127635688        5.4390030000        0.0000000000
B             1.8134309349        5.4379990243        3.6263558556
B             1.8134309349        5.4400069757        7.2516501444
B             1.8057842168        9.0722217832       -0.0024261964
B             1.8149877604        9.0630182396        3.6287701022
B             1.8119713380        9.0660346620        7.2537412620
B             5.4390030000        1.8127635688       -0.0000000000
B             5.4379990243        1.8134309349        3.6263558556
B             5.4400069757        1.8134309349        7.2516501444
B             5.4390030000        5.4390030000        0.0000000000
B             5.4390030000        5.4390030000        3.6259659535
B             5.4390030000        5.4390030000        7.2520400465
B             5.4390030000        9.0652424312       -0.0000000000
B             5.4400069757        9.0645750651        3.6263558556
B             5.4379990243        9.0645750651        7.2516501444
B             9.0722217832        1.8057842168       -0.0024261964
B             9.0630182396        1.8149877604        3.6287701022
B             9.0660346620        1.8119713380        7.2537412620
B             9.0652424312        5.4390030000       -0.0000000000
B             9.0645750651        5.4400069757        3.6263558556
B             9.0645750651        5.4379990243        7.2516501444
B             9.0722217832        9.0722217832        0.0024261964
B             9.0660346620        9.0660346620        3.6242647380
B             9.0630182396        9.0630182396        7.2492358978
N             0.9055560510        0.9055560510        2.7180067287
N             0.9069336703        0.9069336703        6.3456343672
N             0.9897926645        0.9897926645        9.8882133355
N             0.9069364009        4.5328051066        2.7197195094
N             0.9074790358        4.5342566391        6.3437493609
N             0.9069336703        4.5323716328        9.9710723297
N             0.9112849656        8.1483238239        2.7296821761
N             0.9069364009        8.1582864906        6.3452008934
N             0.9055560510        8.1599992713        9.9724499490
N             4.5328051066        0.9069364009        2.7197195094
N             4.5342566391        0.9074790358        6.3437493609
N             4.5323716328        0.9069336703        9.9710723297
N             4.5324049637        4.5324049637        2.7198298736
N             4.5330944878        4.5330944878        6.3449115122
N             4.5342566391        4.5342566391        9.9705269642
N             4.5351051526        8.1566919040        2.7213140960
N             4.5324049637        8.1581761264        6.3456010363
N             4.5328051066        8.1582864906        9.9710695991
N             8.1483238239        0.9112849656        2.7296821761
N             8.1582864906        0.9069364009        6.3452008934
N             8.1599992713        0.9055560510        9.9724499490
N             8.1566919040        4.5351051526        2.7213140960
N             8.1581761264        4.5324049637        6.3456010363
N             8.1582864906        4.5328051066        9.9710695991
N             8.1591309745        8.1591309745        2.7188750255
N             8.1566919040        8.1566919040        6.3429008474
N             8.1483238239        8.1483238239        9.9667210344
N             0.9055560510        2.7180067287        0.9055560510
N             0.9069364009        2.7197195094        4.5328051066
N             0.9112849656        2.7296821761        8.1483238239
N             0.9069336703        6.3456343672        0.9069336703
N             0.9074790358        6.3437493609        4.5342566391
N             0.9069364009        6.3452008934        8.1582864906
N             0.9897926645        9.8882133355        0.9897926645
N             0.9069336703        9.9710723297        4.5323716328
N             0.9055560510        9.9724499490        8.1599992713
N             4.5328051066        2.7197195094        0.9069364009
N             4.5324049637        2.7198298736        4.5324049637
N             4.5351051526        2.7213140960        8.1566919040
N             4.5342566391        6.3437493609        0.9074790358
N             4.5330944878        6.3449115122        4.5330944878
N             4.5324049637        6.3456010363        8.1581761264
N             4.5323716328        9.9710723297        0.9069336703
N             4.5342566391        9.9705269642        4.5342566391
N             4.5328051066        9.9710695991        8.1582864906
N             8.1483238239        2.7296821761        0.9112849656
N             8.1566919040        2.7213140960        4.5351051526
N             8.1591309745        2.7188750255        8.1591309745
N             8.1582864906        6.3452008934        0.9069364009
N             8.1581761264        6.3456010363        4.5324049637
N             8.1566919040        6.3429008474        8.1566919040
N             8.1599992713        9.9724499490        0.9055560510
N             8.1582864906        9.9710695991        4.5328051066
N             8.1483238239        9.9667210344        8.1483238239
N             2.7180067287        0.9055560510        0.9055560510
N             2.7197195094        0.9069364009        4.5328051066
N             2.7296821761        0.9112849656        8.1483238239
N             2.7197195094        4.5328051066        0.9069364009
N             2.7198298736        4.5324049637        4.5324049637
N             2.7213140960        4.5351051526        8.1566919040
N             2.7296821761        8.1483238239        0.9112849656
N             2.7213140960        8.1566919040        4.5351051526
N             2.7188750255        8.1591309745        8.1591309745
N             6.3456343672        0.9069336703        0.9069336703
N             6.3437493609        0.9074790358        4.5342566391
N             6.3452008934        0.9069364009        8.1582864906
N             6.3437493609        4.5342566391        0.9074790358
N             6.3449115122        4.5330944878        4.5330944878
N             6.3456010363        4.5324049637        8.1581761264
N             6.3452008934        8.1582864906        0.9069364009
N             6.3456010363        8.1581761264        4.5324049637
N             6.3429008474        8.1566919040        8.1566919040
N             9.8882133355        0.9897926645        0.9897926645
N             9.9710723297        0.9069336703        4.5323716328
N             9.9724499490        0.9055560510        8.1599992713
N             9.9710723297        4.5323716328        0.9069336703
N             9.9705269642        4.5342566391        4.5342566391
N             9.9710695991        4.5328051066        8.1582864906
N             9.9724499490        8.1599992713        0.9055560510
N             9.9710695991        8.1582864906        4.5328051066
N             9.9667210344        8.1483238239        8.1483238239
N             2.7188750255        2.7188750255        2.7188750255
N             2.7213140960        2.7213140960        6.3429008474
N             2.7296821761        2.7296821761        9.9667210344
N             2.7213140960        6.3429008474        2.7213140960
N             2.7198298736        6.3456010363        6.3456010363
N             2.7197195094        6.3452008934        9.9710695991
N             2.7296821761        9.9667210344        2.7296821761
N             2.7197195094        9.9710695991        6.3452008934
N             2.7180067287        9.9724499490        9.9724499490
N             6.3429008474        2.7213140960        2.7213140960
N             6.3456010363        2.7198298736        6.3456010363
N             6.3452008934        2.7197195094        9.9710695991
N             6.3456010363        6.3456010363        2.7198298736
N             6.3449115122        6.3449115122        6.3449115122
N             6.3437493609        6.3437493609        9.9705269642
N             6.3452008934        9.9710695991        2.7197195094
N             6.3437493609        9.9705269642        6.3437493609
N             6.3456343672        9.9710723297        9.9710723297
N             9.9667210344        2.7296821761        2.7296821761
N             9.9710695991        2.7197195094        6.3452008934
N             9.9724499490        2.7180067287        9.9724499490
N             9.9710695991        6.3452008934        2.7197195094
N             9.9705269642        6.3437493609        6.3437493609
N             9.9710723297        6.3456343672        9.9710723297
N             9.9724499490        9.9724499490        2.7180067287
N             9.9710723297        9.9710723297        6.3456343672
N             9.8882133355        9.8882133355        9.8882133355
K_POINTS gamma
CELL_PARAMETERS angstrom
     10.8780060000       0.0000000000       0.0000000000
      0.0000000000      10.8780060000       0.0000000000
      0.0000000000       0.0000000000      10.8780060000
