&CONTROL
  calculation = 'scf'
  etot_conv_thr =   2.1600000000d-03
  forc_conv_thr =   1.0000000000d-04
  outdir = './out/'
  prefix = 'aiida'
  pseudo_dir = './pseudo/'
  tprnfor = .true.
  !tstress = .true.
  verbosity = 'high'
  disk_io   = 'high'
  max_seconds = 14400
/
&SYSTEM
  degauss =   1.4699723600d-02
  ecutwfc =   10.0000000000d+01
  ibrav = 0
  nat = 215
  nosym = .false.
  ntyp = 2
  occupations = 'smearing'
  smearing = 'mv'
  tot_charge = -1
  nspin = 2
  starting_magnetization(1) =  0.5
  starting_magnetization(2) = -0.5
  input_dft = 'pbe0'
  exx_fraction = 0.23
  ecutfock = 120
  ace = .true.
  localization_thr = 0.001
/
&ELECTRONS
  conv_thr =   4.3200000000d-08
  electron_maxstep = 80
  mixing_beta =   4.0000000000d-01
  adaptive_thr = .True.
  conv_thr_init = 1.D-3 
  conv_thr_multi = 1.D-2
/
&IONS
/
ATOMIC_SPECIES
B      10.811 B_ONCV_PBE-1.2.upf
N      14.0067 N_ONCV_PBE-1.2.upf
ATOMIC_POSITIONS (angstrom)
B             0.0043872188        0.0043872188        0.0069851298
N            -0.1883243962       -0.1883243962        3.8143275635
B             0.0020772067        0.0020772067        7.2450657634
B             0.0034144340        3.6296573710       -0.0036542037
B             0.0043872763        3.6190180273        3.6216159383
B            -0.0032122984        3.6334685913        7.2594353062
B            -0.0032122409        7.2445703694       -0.0074654342
B             0.0020771492        7.2589399122        3.6239259504
B             0.0072665644        7.2454201991        7.2585854867
B             3.6296573710        0.0034144340       -0.0036542037
B             3.6190180273        0.0043872763        3.6216159383
B             3.6334685913       -0.0032122984        7.2594353062
B             3.6285938958        3.6285938958       -0.0025906812
B             3.6296574020        3.6296574020        3.6225887643
B             3.6246203409        3.6246203409        7.2482108322
B             3.6246202898        7.2557948025        0.0013828098
B             3.6334686424        7.2445703285        3.6292154491
B             3.6294671121        7.2509102758        7.2530953276
B             7.2445703694       -0.0032122409       -0.0074654342
B             7.2589399122        0.0020771492        3.6239259504
B             7.2454201991        0.0072665644        7.2585854867
B             7.2557948025        3.6246202898        0.0013828098
B             7.2445703285        3.6334686424        3.6292154491
B             7.2509102758        3.6294671121        7.2530953276
B             7.2509103170        7.2509103170       -0.0034638563
B             7.2454201579        7.2454201579        3.6187366914
B             7.2571015655        7.2571015655        7.2469040181
B             0.0513041226        1.8224320330        1.8035675960
B            -0.0220025884        1.8264752512        5.4381638613
B             0.0022957225        1.8135654279        9.0625337254
B             0.0022957907        5.4414754601        1.8124341929
B             0.0020551219        5.4386991986        5.4355613563
B             0.0010803619        5.4381477712        9.0658614225
B            -0.0220026566        9.0658453242        1.7995243696
B             0.0264935164        9.0654878424        5.4385213513
B             0.0020551901        9.0684478292        9.0653099869
B             3.6329847234        1.8194137551        1.8065858403
B             3.6167117895        1.8135688240        5.4263019946
B             3.6257288131        1.8143066323        9.0622097624
B             3.6257287629        5.4417995222        1.8116929217
B             3.6283180998        5.4375012788        5.4381954902
B             3.6271187476        5.4399286346        9.0640805268
B             3.6167118397        9.0777072900        1.8124307300
B             3.6327389965        9.0604022361        5.4436069253
B             3.6283181623        9.0658137121        9.0665079235
B             7.2587535490        1.8076780371        1.8183214947
B             7.2459814546        1.8195185832        5.4438201994
B             7.2533013840        1.8156677602        9.0685151517
B             7.2533014460        5.4354940001        1.8103318256
B             7.2529791310        5.4430870902        5.4375532264
B             7.2533001631        5.4407636921        9.0632455703
B             7.2459813926        9.0601889524        1.8064810026
B             7.2596917183        9.0747273817        5.4292818807
B             7.2529790803        9.0664560077        9.0609221439
B             1.8224320330        0.0513041226        1.8035675960
B             1.8264752512       -0.0220025884        5.4381638613
B             1.8135654279        0.0022957225        9.0625337254
B             1.8194137551        3.6329847234        1.8065858403
B             1.8135688240        3.6167117895        5.4263019946
B             1.8143066323        3.6257288131        9.0622097624
B             1.8076780371        7.2587535490        1.8183214947
B             1.8195185832        7.2459814546        5.4438201994
B             1.8156677602        7.2533013840        9.0685151517
B             5.4414754601        0.0022957907        1.8124341929
B             5.4386991986        0.0020551219        5.4355613563
B             5.4381477712        0.0010803619        9.0658614225
B             5.4417995222        3.6257287629        1.8116929217
B             5.4375012788        3.6283180998        5.4381954902
B             5.4399286346        3.6271187476        9.0640805268
B             5.4354940001        7.2533014460        1.8103318256
B             5.4430870902        7.2529791310        5.4375532264
B             5.4407636921        7.2533001631        9.0632455703
B             9.0658453242       -0.0220026566        1.7995243696
B             9.0654878424        0.0264935164        5.4385213513
B             9.0684478292        0.0020551901        9.0653099869
B             9.0777072900        3.6167118397        1.8124307300
B             9.0604022361        3.6327389965        5.4436069253
B             9.0658137121        3.6283181623        9.0665079235
B             9.0601889524        7.2459813926        1.8064810026
B             9.0747273817        7.2596917183        5.4292818807
B             9.0664560077        7.2529790803        9.0609221439
B             1.8194137719        1.8194137719       -0.0069814289
B             1.8224320162        1.8224320162        3.5746991719
B             1.8076780371        1.8076780371        7.2452520220
B             1.8143066727        5.4417994717        0.0002744014
B             1.8135654015        5.4414755106        3.6237073736
B             1.8156677506        5.4354940001        7.2507042254
B             1.8135688504        9.0777072414        0.0092913066
B             1.8264752108        9.0658453728        3.6480058029
B             1.8195185928        9.0601889524        7.2580241548
B             5.4417994717        1.8143066727        0.0002744014
B             5.4414755106        1.8135654015        3.6237073736
B             5.4354940001        1.8156677506        7.2507042254
B             5.4399286851        5.4399286851       -0.0011155833
B             5.4381477712        5.4381477712        3.6249228019
B             5.4407636416        5.4407636416        7.2507055088
B             5.4375012788        9.0658137035       -0.0023149360
B             5.4386991481        9.0684478556        3.6239480424
B             5.4430871407        9.0664559855        7.2510265409
B             9.0777072414        1.8135688504        0.0092913066
B             9.0658453728        1.8264752108        3.6480058029
B             9.0601889524        1.8195185928        7.2580241548
B             9.0658137035        5.4375012788       -0.0023149360
B             9.0684478556        5.4386991481        3.6239480424
B             9.0664559855        5.4430871407        7.2510265409
B             9.0604022097        9.0604022097       -0.0067357640
B             9.0654878510        9.0654878510        3.5995097099
B             9.0747274039        9.0747274039        7.2443139029
N             0.9064390525        0.9064390525        6.3421432263
N             0.9109170249        0.9109170249        9.9693829109
N             0.9109169398        4.5346228694        2.7150860785
N             0.9084945432        4.5287923132        6.3405126839
N             0.9099288792        4.5333388197        9.9706667683
N             0.9064389421        8.1618660085        2.7195641247
N             0.9134588939        8.1306798157        6.3733293006
N             0.9084943527        8.1634967027        9.9752132240
N             4.5346228694        0.9109169398        2.7150860785
N             4.5287923132        0.9084945432        6.3405126839
N             4.5333388197        0.9099288792        9.9706667683
N             4.5333389746        4.5333389746        2.7160745887
N             4.5325108635        4.5325108635        6.3449785749
N             4.5342620424        4.5342620424        9.9697433043
N             4.5287923342        8.1634965079        2.7175089183
N             4.5396762031        8.1552414364        6.3487673528
N             4.5325110651        8.1590307430        9.9714948003
N             8.1618660085        0.9064389421        2.7195641247
N             8.1306798157        0.9134588939        6.3733293006
N             8.1634967027        0.9084943527        9.9752132240
N             8.1634965079        4.5287923342        2.7175089183
N             8.1552414364        4.5396762031        6.3487673528
N             8.1590307430        4.5325110651        9.9714948003
N             8.1306797310        8.1306797310        2.7125442091
N             8.1633258077        8.1633258077        6.3406833631
N             8.1552417271        8.1552417271        9.9643296502
N             0.9188962666        2.7265320476        0.8994710286
N             0.9037785150        2.7011494748        4.4997674969
N             0.9089956572        2.7222322527        8.1593188979
N             0.9089957676        6.3446903369        0.9037709245
N             0.9107393108        6.3431973365        4.5318497405
N             0.9096651217        6.3381596809        8.1658494354
N             0.9037786001       10.0042382834        0.9248536286
N             1.0650164282        9.8445460034        4.6594595846
N             0.9107391203        9.9721557967        8.1608120501
N             4.5361999228        2.7237361463        0.9022668720
N             4.5305862760        2.7210167214        4.5285992188
N             4.5312655011        2.7213694004        8.1573736503
N             4.5312654801        6.3466355415        0.9046340611
N             4.5391123196        6.3393553160        4.5312877472
N             4.5349955122        6.3448826141        8.1591261751
N             4.5305861211        9.9754065241        0.9049867465
N             4.5309386176        9.9734086787        4.5305966680
N             4.5391125212        9.9727179166        8.1646540019
N             8.1662846722        2.7171263666        0.9088767002
N             8.1312313759        2.7487708979        4.5336405792
N             8.1554744323        2.7257929249        8.1655712808
N             8.1554745170        6.3384377508        0.9002101781
N             8.1587204852        6.3438815163        4.5301720312
N             8.1591568920        6.3474362804        8.1565728904
N             8.1312315707        9.9703649790        0.8772323731
N             8.1584636380        9.9799689588        4.5240369066
N             8.1587207759        9.9738338221        8.1601275636
N             2.7265320476        0.9188962666        0.8994710286
N             2.7011494748        0.9037785150        4.4997674969
N             2.7222322527        0.9089956572        8.1593188979
N             2.7237361463        4.5361999228        0.9022668720
N             2.7210167214        4.5305862760        4.5285992188
N             2.7213694004        4.5312655011        8.1573736503
N             2.7171263666        8.1662846722        0.9088767002
N             2.7487708979        8.1312313759        4.5336405792
N             2.7257929249        8.1554744323        8.1655712808
N             6.3446903369        0.9089957676        0.9037709245
N             6.3431973365        0.9107393108        4.5318497405
N             6.3381596809        0.9096651217        8.1658494354
N             6.3466355415        4.5312654801        0.9046340611
N             6.3393553160        4.5391123196        4.5312877472
N             6.3448826141        4.5349955122        8.1591261751
N             6.3384377508        8.1554745170        0.9002101781
N             6.3438815163        8.1587204852        4.5301720312
N             6.3474362804        8.1591568920        8.1565728904
N            10.0042382834        0.9037786001        0.9248536286
N             9.8445460034        1.0650164282        4.6594595846
N             9.9721557967        0.9107391203        8.1608120501
N             9.9754065241        4.5305861211        0.9049867465
N             9.9734086787        4.5309386176        4.5305966680
N             9.9727179166        4.5391125212        8.1646540019
N             9.9703649790        8.1312315707        0.8772323731
N             9.9799689588        8.1584636380        4.5240369066
N             9.9738338221        8.1587207759        8.1601275636
N             2.7265322020        2.7265322020        2.7071069640
N             2.7171264672        2.7171264672        6.3377245992
N             2.7237361708        2.7237361708        9.9678059186
N             2.7222323533        6.3446903735        2.7170075102
N             2.7257931554        6.3384377389        6.3485345874
N             2.7213692753        6.3466353409        9.9727401847
N             2.7011494993       10.0042383445        2.7222245278
N             2.7487707728        9.9703651066        6.3727776153
N             2.7210163365        9.9754065309        9.9734194737
N             6.3446903735        2.7222323533        2.7170075102
N             6.3384377389        2.7257931554        6.3485345874
N             6.3466353409        2.7213692753        9.9727401847
N             6.3381596690        6.3381596690        2.7163382118
N             6.3474363024        6.3474363024        6.3448523008
N             6.3448828266        6.3448828266        9.9690100470
N             6.3431971359        9.9721559243        2.7152640256
N             6.3438817288        9.9738335280        6.3452885165
N             6.3393552574        9.9727177822        9.9648932098
N            10.0042383445        2.7011494993        2.7222245278
N             9.9703651066        2.7487707728        6.3727776153
N             9.9754065309        2.7210163365        9.9734194737
N             9.9721559243        6.3431971359        2.7152640256
N             9.9738335280        6.3438817288        6.3452885165
N             9.9727177822        6.3393552574        9.9648932098
N             9.8445460102        9.8445460102        2.5609866548
N             9.9799688244        9.9799688244        6.3455456213
N             9.9734089117        9.9734089117        9.9730669621
K_POINTS gamma
CELL_PARAMETERS angstrom
     10.8780060000       0.0000000000       0.0000000000
      0.0000000000      10.8780060000       0.0000000000
      0.0000000000       0.0000000000      10.8780060000
