&CONTROL
  calculation = 'scf'
  etot_conv_thr =   2.1600000000d-03
  forc_conv_thr =   1.0000000000d-04
  outdir = './out/'
  prefix = 'aiida'
  pseudo_dir = './pseudo/'
  tprnfor = .true.
  !tstress = .true.
  verbosity = 'high'
  disk_io   = 'high'
  max_seconds = 14400
/
&SYSTEM
  degauss =   1.4699723600d-02
  ecutwfc =   10.0000000000d+01
  ibrav = 0
  nat = 215
  nosym = .false.
  ntyp = 2
  occupations = 'smearing'
  smearing = 'mv'
  tot_charge =  2
  nspin = 2
  starting_magnetization(1) =  0.5
  starting_magnetization(2) = -0.5
  input_dft = 'pbe0'
  exx_fraction = 0.23
  ecutfock = 120
  ace = .true.
  localization_thr = 0.001
/
&ELECTRONS
  conv_thr =   4.3200000000d-08
  electron_maxstep = 80
  mixing_beta =   4.0000000000d-01
  adaptive_thr = .True.
  conv_thr_init = 1.D-3 
  conv_thr_multi = 1.D-2
/
&IONS
/
ATOMIC_SPECIES
B      10.811 B_ONCV_PBE-1.2.upf
N      14.0067 N_ONCV_PBE-1.2.upf
ATOMIC_POSITIONS (angstrom)
B             0.0104218835        0.0104218835       -0.0154477349
B             0.0025714306        0.0025714306        7.2546178785
B            -0.0149999103        3.6542277320       -0.0282245647
B             0.0104219410        3.6414508920        3.6155812736
B             0.0044767072        3.6301935446        7.2483555918
B             0.0044767647        7.2556500838       -0.0041903875
B             0.0025713731        7.2493877971        3.6234317265
B             0.0009617138        7.2525034593        7.2515022265
B             3.6542277320       -0.0149999103       -0.0282245647
B             3.6414508920        0.0104219410        3.6155812736
B             3.6301935446        0.0044767072        7.2483555918
B             3.6283607560        3.6283607560       -0.0023575414
B             3.6542277630        3.6542277630        3.6410031086
B             3.6367081926        3.6367081926        7.2565011283
B             3.6367081415        7.2475045064       -0.0107050419
B             3.6301935957        7.2556500429        3.6215264435
B             3.6321831116        7.2569150525        7.2470905509
B             7.2556500838        0.0044767647       -0.0041903875
B             7.2493877971        0.0025713731        3.6234317265
B             7.2525034593        0.0009617138        7.2515022265
B             7.2475045064        3.6367081415       -0.0107050419
B             7.2556500429        3.6301935957        3.6215264435
B             7.2569150525        3.6321831116        7.2470905509
B             7.2569150937        7.2569150937       -0.0061798558
B             7.2525034181        7.2525034181        3.6250415420
B             7.2539671634        7.2539671634        7.2500384202
B            -0.1354984715        1.9567280320        1.6692715970
B             0.0105733513        1.8110787496        5.4459622783
B             0.0026070985        1.8189179323        9.0540695288
B             0.0026071667        5.4499396567        1.8070816885
B             0.0044418124        5.4438639439        5.4347364793
B             0.0009824574        5.4468456272        9.0571635665
B             0.0105732831        9.0580469072        1.8149208712
B            -0.0148468350        9.0451271457        5.4588820480
B             0.0044418806        9.0692727062        9.0601452416
B             3.6411695641        1.8108165207        1.8151830747
B             3.6543899681        1.8362928522        5.4589037258
B             3.6300468011        1.8170540645        9.0603904687
B             3.6300467509        5.4436188159        1.8089454895
B             3.6367551009        5.4518729017        5.4412931702
B             3.6321347577        5.4425825215        9.0614266399
B             3.6543900183        9.0451055588        1.7897067018
B             3.6284895313        9.0710879589        5.4329212025
B             3.6367551634        9.0627160321        9.0521363006
B             7.2495026082        1.8188713191        1.8071282127
B             7.2557333221        1.8170904822        5.4346404163
B             7.2524782766        1.8206906906        9.0571038867
B             7.2524783386        5.4469052651        1.8053088952
B             7.2568051509        5.4425747181        5.4365620717
B             7.2541020056        5.4453536642        9.0586555982
B             7.2557332601        9.0693687355        1.8089091036
B             7.2475316799        9.0626028066        5.4414064558
B             7.2568051002        9.0674471624        9.0614345160
B             1.9567280320       -0.1354984715        1.6692715970
B             1.8110787496        0.0105733513        5.4459622783
B             1.8189179323        0.0026070985        9.0540695288
B             1.8108165207        3.6411695641        1.8151830747
B             1.8362928522        3.6543899681        5.4589037258
B             1.8170540645        3.6300468011        9.0603904687
B             1.8188713191        7.2495026082        1.8071282127
B             1.8170904822        7.2557333221        5.4346404163
B             1.8206906906        7.2524782766        9.0571038867
B             5.4499396567        0.0026071667        1.8070816885
B             5.4438639439        0.0044418124        5.4347364793
B             5.4468456272        0.0009824574        9.0571635665
B             5.4436188159        3.6300467509        1.8089454895
B             5.4518729017        3.6367551009        5.4412931702
B             5.4425825215        3.6321347577        9.0614266399
B             5.4469052651        7.2524783386        1.8053088952
B             5.4425747181        7.2568051509        5.4365620717
B             5.4453536642        7.2541020056        9.0586555982
B             9.0580469072        0.0105732831        1.8149208712
B             9.0451271457       -0.0148468350        5.4588820480
B             9.0692727062        0.0044418806        9.0601452416
B             9.0451055588        3.6543900183        1.7897067018
B             9.0710879589        3.6284895313        5.4329212025
B             9.0627160321        3.6367551634        9.0521363006
B             9.0693687355        7.2557332601        1.8089091036
B             9.0626028066        7.2475316799        5.4414064558
B             9.0674471624        7.2568051002        9.0614345160
B             1.8108165375        1.8108165375       -0.0151662696
B             1.9567280152        1.9567280152        3.7615017660
B             1.8188713191        1.8188713191        7.2545029628
B             1.8170541049        5.4436187654       -0.0040435866
B             1.8189179059        5.4499397072        3.6233959976
B             1.8206906810        5.4469052651        7.2515273328
B             1.8362928786        9.0451055102       -0.0283868720
B             1.8110787092        9.0580469558        3.6154298632
B             1.8170904918        9.0693687355        7.2482722873
B             5.4436187654        1.8170541049       -0.0040435866
B             5.4499397072        1.8189179059        3.6233959976
B             5.4469052651        1.8206906810        7.2515273328
B             5.4425825720        5.4425825720       -0.0061315934
B             5.4468456272        5.4468456272        3.6250207064
B             5.4453536137        5.4453536137        7.2499036663
B             5.4518729017        9.0627160235       -0.0107519371
B             5.4438638934        9.0692727326        3.6215613519
B             5.4425747686        9.0674471402        7.2472005210
B             9.0451055102        1.8362928786       -0.0283868720
B             9.0580469558        1.8110787092        3.6154298632
B             9.0693687355        1.8170904918        7.2482722873
B             9.0627160235        5.4518729017       -0.0107519371
B             9.0692727326        5.4438638934        3.6215613519
B             9.0674471402        5.4425747686        7.2472005210
B             9.0710879325        9.0710879325       -0.0024862988
B             9.0451271543        9.0451271543        3.6408500613
B             9.0626028288        9.0626028288        7.2564739413
B            -0.1355848317       -0.1355848317        3.7615879079
N             0.9107630508        0.9107630508        6.3415760691
N             0.9107402306        0.9107402306        9.9669549433
N             0.9107401455        4.5370508370        2.7152628728
N             0.9121982863        4.5362775909        6.3407655410
N             0.9093685426        4.5361167187        9.9678888693
N             0.9107629404        8.1624331657        2.7152401264
N             0.9094043808        8.1633513854        6.3406577309
N             0.9121980958        8.1632438456        9.9677279463
N             4.5370508370        0.9107401455        2.7152628728
N             4.5362775909        0.9121982863        6.3407655410
N             4.5361167187        0.9093685426        9.9678888693
N             4.5361168736        4.5361168736        2.7166349253
N             4.5385436770        4.5385436770        6.3430923882
N             4.5340842814        4.5340842814        9.9699210653
N             4.5362776119        8.1632436508        2.7138051752
N             4.5340761827        8.1655154931        6.3384932961
N             4.5385438786        8.1609169297        9.9654619868
N             8.1624331657        0.9107629404        2.7152401264
N             8.1633513854        0.9094043808        6.3406577309
N             8.1632438456        0.9121980958        9.9677279463
N             8.1632436508        4.5362776119        2.7138051752
N             8.1655154931        4.5340761827        6.3384932961
N             8.1609169297        4.5385438786        9.9654619868
N             8.1633513007        8.1633513007        2.7165987222
N             8.1608338262        8.1608338262        6.3431753446
N             8.1655157838        8.1655157838        9.9699296706
N             0.9076467787        2.7114696018        0.9145334744
N             0.9137792976        2.7116736037        4.5163205411
N             0.9109286798        2.7231490281        8.1544214586
N             0.9109287902        6.3495877762        0.9028541491
N             0.9109389167        6.3496200941        4.5279007377
N             0.9110224440        6.3495763291        8.1544327872
N             0.9137793827        9.9876852392        0.9143294997
N             0.9081256481        9.9877550370        4.5162505510
N             0.9109387262        9.9761047995        8.1543892925
N             4.5302704048        2.7183032593        0.9076997590
N             4.5404711957        2.7269808148        4.5317384657
N             4.5364318888        2.7234686382        8.1570835076
N             4.5364318678        6.3469256842        0.9025348233
N             4.5365216595        6.3521627530        4.5281348085
N             4.5366843578        6.3496375993        8.1543711899
N             4.5404710408        9.9722672772        0.8990226531
N             4.5307540932        9.9807912911        4.5232140556
N             4.5365218611        9.9758708553        8.1518465649
N             8.1593585744        2.7269020975        0.8991009693
N             8.1691975450        2.7184888640        4.5230281350
N             8.1632819865        2.7234736352        8.1517427487
N             8.1632820712        6.3522662829        0.9025294678
N             8.1631706557        6.3470403848        4.5281332330
N             8.1631285140        6.3495617137        8.1544474571
N             8.1691977398        9.9809774232        0.9075144070
N             8.1592229653        9.9722498783        4.5317559871
N             8.1631709464        9.9758726203        8.1569686951
N             2.7114696018        0.9076467787        0.9145334744
N             2.7116736037        0.9137792976        4.5163205411
N             2.7231490281        0.9109286798        8.1544214586
N             2.7183032593        4.5302704048        0.9076997590
N             2.7269808148        4.5404711957        4.5317384657
N             2.7234686382        4.5364318888        8.1570835076
N             2.7269020975        8.1593585744        0.8991009693
N             2.7184888640        8.1691975450        4.5230281350
N             2.7234736352        8.1632819865        8.1517427487
N             6.3495877762        0.9109287902        0.9028541491
N             6.3496200941        0.9109389167        4.5279007377
N             6.3495763291        0.9110224440        8.1544327872
N             6.3469256842        4.5364318678        0.9025348233
N             6.3521627530        4.5365216595        4.5281348085
N             6.3496375993        4.5366843578        8.1543711899
N             6.3522662829        8.1632820712        0.9025294678
N             6.3470403848        8.1631706557        4.5281332330
N             6.3495617137        8.1631285140        8.1544474571
N             9.9876852392        0.9137793827        0.9143294997
N             9.9877550370        0.9081256481        4.5162505510
N             9.9761047995        0.9109387262        8.1543892925
N             9.9722672772        4.5404710408        0.8990226531
N             9.9807912911        4.5307540932        4.5232140556
N             9.9758708553        4.5365218611        8.1518465649
N             9.9809774232        8.1691977398        0.9075144070
N             9.9722498783        8.1592229653        4.5317559871
N             9.9758726203        8.1631709464        8.1569686951
N             2.7114697562        2.7114697562        2.7183564519
N             2.7269021981        2.7269021981        6.3446506970
N             2.7183032838        2.7183032838        9.9737354366
N             2.7231491287        6.3495878128        2.7150744876
N             2.7234738657        6.3522662710        6.3407270332
N             2.7234685131        6.3469254836        9.9675737970
N             2.7116736282        9.9876853003        2.7122237452
N             2.7184887389        9.9809775508        6.3348114462
N             2.7269804299        9.9722672840        9.9635345540
N             6.3495878128        2.7231491287        2.7150744876
N             6.3522662710        2.7234738657        6.3407270332
N             6.3469254836        2.7234685131        9.9675737970
N             6.3495763172        6.3495763172        2.7149808895
N             6.3495617357        6.3495617357        6.3408806788
N             6.3496378118        6.3496378118        9.9673212014
N             6.3496198935        9.9761049271        2.7150644197
N             6.3470405973        9.9758723262        6.3408383460
N             6.3521626944        9.9758707209        9.9674838699
N             9.9876853003        2.7116736282        2.7122237452
N             9.9809775508        2.7184887389        6.3348114462
N             9.9722672840        2.7269804299        9.9635345540
N             9.9761049271        6.3496198935        2.7150644197
N             9.9758723262        6.3470405973        6.3408383460
N             9.9758707209        6.3521626944        9.9674838699
N             9.9877550438        9.9877550438        2.7178774349
N             9.9722497439        9.9722497439        6.3447862940
N             9.9807915241        9.9807915241        9.9732514865
K_POINTS gamma
CELL_PARAMETERS angstrom
     10.8780060000       0.0000000000       0.0000000000
      0.0000000000      10.8780060000       0.0000000000
      0.0000000000       0.0000000000      10.8780060000
