&CONTROL
  calculation = 'relax'
  etot_conv_thr =   2.1600000000d-03
  forc_conv_thr =   1.0000000000d-04
  outdir = './out/'
  prefix = 'aiida'
  pseudo_dir = './pseudo/'
  tprnfor = .true.
  tstress = .true.
  verbosity = 'high'
/
&SYSTEM
  degauss =   1.4699723600d-02
  ecutwfc =   10.0000000000d+01
  ibrav = 0
  nat = 217
  nosym = .false.
  ntyp = 2
  occupations = 'smearing'
  smearing = 'mv'
  tot_charge = 0
  nspin = 2
  starting_magnetization(1) =  0.5
  starting_magnetization(2) = -0.5
/
&ELECTRONS
  conv_thr =   4.3200000000d-08
  electron_maxstep = 500
  mixing_beta =   4.0000000000d-01
  scf_must_converge = .False.
/
&IONS
/
ATOMIC_SPECIES
B      10.811 B_ONCV_PBE-1.2.upf
N      14.0067 N_ONCV_PBE-1.2.upf
ATOMIC_POSITIONS angstrom
B            -0.0518047350        0.2254314864       -0.0518047350
B             0.0156528462        0.0108306196        3.6182358503
B            -0.0012413904        0.0055690752        7.2528773666
B            -0.0067795374        3.6425017397       -0.0067795374
B            -0.0050186176        3.6430041723        3.6408931908
B            -0.0020214119        3.6374807162        7.2394382422
B            -0.0176159546        7.1989461833       -0.0176159546
B            -0.0048042503        7.2062481586        3.6655238509
B            -0.0010267561        7.2532316020        7.2488250789
B             3.6182358503        0.0108306196        0.0156528462
B             3.6205168485        0.0101088509        3.6205168485
B             3.6240897859        0.0030628630        7.2549311115
B             3.6408931908        3.6430041723       -0.0050186176
B             3.6358164481        3.6385910993        3.6358164481
B             3.6306567824        3.6280995151        7.2488618120
B             3.6655238509        7.2062481586       -0.0048042503
B             3.6288323678        7.2537580143        3.6288323678
B             3.6310048505        7.2563270163        7.2476932618
B             7.2528773666        0.0055690752       -0.0012413904
B             7.2549311115        0.0030628630        3.6240897859
B             7.2529540911        0.0037516778        7.2529540911
B             7.2394382422        3.6374807162       -0.0020214119
B             7.2488618120        3.6280995151        3.6306567824
B             7.2495833110        3.6294325456        7.2495833110
B             7.2488250789        7.2532316020       -0.0010267561
B             7.2476932618        7.2563270163        3.6310048505
B             7.2509898701        7.2586677302        7.2509898701
B            -0.0177226595        1.8748756490        1.8307570161
B            -0.0009094522        1.8201616992        5.4417988041
B            -0.0045138105        1.8672709003        9.0254493309
B            -0.0068838202        5.4314573181        1.8197300678
B            -0.0020901438        5.4358990443        5.4511465988
B            -0.0050036772        5.4307463348        9.0497875340
B            -0.0518968380        8.8479609246        1.8654390034
B            -0.0012605885        9.0676725747        5.4380279389
B             0.0157714544        9.0625067995        9.0730702324
B             3.6654156912        1.8673118634        1.8176586442
B             3.6309644484        1.8167945259        5.4430205524
B             3.6285402625        1.8196500325        9.0622788255
B             3.6410412501        5.4307456356        1.8178919050
B             3.6307100007        5.4450342056        5.4418266189
B             3.6358567787        5.4348645688        9.0549437857
B             3.6182488008        9.0623971037        1.7975956284
B             3.6242463644        9.0701181172        5.4361900433
B             3.6204057774        9.0630929327        9.0706220218
B             7.2488172626        1.8201176784        1.8138004229
B             7.2509696785        1.8143851134        5.4398353718
B             7.2477778336        1.8168037204        9.0599738306
B             7.2394232725        5.4359965344        1.8147892922
B             7.2495628968        5.4434921902        5.4412157409
B             7.2489722798        5.4450292363        9.0601112672
B             7.2528975736        9.0677315804        1.8140999777
B             7.2529248978        9.0694013878        5.4380205246
B             7.2549064210        9.0702250811        9.0667621223
B             1.8653620281        0.2256277729        1.8653620281
B             1.8142107180        0.0054544335        5.4380145577
B             1.7975178890        0.0108122920        9.0730119326
B             1.8197328487        3.6426654123        1.8197328487
B             1.8148548705        3.6374204232        5.4511023515
B             1.8178938141        3.6430649028        9.0497060974
B             1.8308136196        7.1987538715        1.8308136196
B             1.8137717133        7.2531624507        5.4418791709
B             1.8177155249        7.2063119835        9.0254072375
B             5.4380145577        0.0054544335        1.8142107180
B             5.4380758968        0.0036040329        5.4380758968
B             5.4359973943        0.0030432497        9.0667361375
B             5.4511023515        3.6374204232        1.8148548705
B             5.4411734611        3.6294097467        5.4411734611
B             5.4417676572        3.6280458626        9.0601599018
B             5.4418791709        7.2531624507        1.8137717133
B             5.4399496762        7.2585808377        5.4399496762
B             5.4431550525        7.2562847255        9.0597840361
B             9.0730119326        0.0108122920        1.7975178890
B             9.0667361375        0.0030432497        5.4359973943
B             9.0708473322        0.0101986859        9.0708473322
B             9.0497060974        3.6430649028        1.8178938141
B             9.0601599018        3.6280458626        5.4417676572
B             9.0550809008        3.6384850432        9.0550809008
B             9.0254072375        7.2063119835        1.8177155249
B             9.0597840361        7.2562847255        5.4431550525
B             9.0623236323        7.2537660125        9.0623236323
B             1.8307570161        1.8748756490       -0.0177226595
B             1.8176586442        1.8673118634        3.6654156912
B             1.8138004229        1.8201176784        7.2488172626
B             1.8197300678        5.4314573181       -0.0068838202
B             1.8178919050        5.4307456356        3.6410412501
B             1.8147892922        5.4359965344        7.2394232725
B             1.8654390034        8.8479609246       -0.0518968380
B             1.7975956284        9.0623971037        3.6182488008
B             1.8140999777        9.0677315804        7.2528975736
B             5.4417988041        1.8201616992       -0.0009094522
B             5.4430205524        1.8167945259        3.6309644484
B             5.4398353718        1.8143851134        7.2509696785
B             5.4511465988        5.4358990443       -0.0020901438
B             5.4418266189        5.4450342056        3.6307100007
B             5.4412157409        5.4434921902        7.2495628968
B             5.4380279389        9.0676725747       -0.0012605885
B             5.4361900433        9.0701181172        3.6242463644
B             5.4380205246        9.0694013878        7.2529248978
B             9.0254493309        1.8672709003       -0.0045138105
B             9.0622788255        1.8196500325        3.6285402625
B             9.0599738306        1.8168037204        7.2477778336
B             9.0497875340        5.4307463348       -0.0050036772
B             9.0549437857        5.4348645688        3.6358567787
B             9.0601112672        5.4450292363        7.2489722798
B             9.0730702324        9.0625067995        0.0157714544
B             9.0706220218        9.0630929327        3.6204057774
B             9.0667621223        9.0702250811        7.2549064210
N             0.9116720379        1.0122531215        2.7850984744
N             0.9065246647        0.9107304280        6.3452735989
N             0.9015236347        1.0121270675        9.9060686401
N             0.9065453478        4.5371747755        2.7287436329
N             0.9064545256        4.5367864836        6.3451788012
N             0.9064945080        4.5369874028        9.9619168677
N             0.9015180729        8.0611655675        2.7851725386
N             0.9064782187        8.1627118830        6.3453309611
N             0.9120957484        8.0614317533        9.9060552760
N             4.5384627111        0.9192432823        2.7215606918
N             4.5336164946        0.9081357867        6.3474083578
N             4.5282982054        0.9094222081        9.9717943249
N             4.5439683725        4.5364792848        2.7265193780
N             4.5362893445        4.5365535797        6.3453086050
N             4.5438838265        4.5369744938        9.9642347834
N             4.5284561182        8.1641102735        2.7190544924
N             4.5336435107        8.1650749465        6.3433920846
N             4.5385955428        8.1540781454        9.9691724531
N             8.1627879042        0.9093449176        2.7188873098
N             8.1574658382        0.9081557062        6.3432803069
N             8.1525734713        0.9193025513        9.9694388023
N             8.1468537949        4.5373238089        2.7264012031
N             8.1546571345        4.5365933183        6.3452855508
N             8.1469301980        4.5364744152        9.9642052789
N             8.1525849401        8.1542551568        2.7213825021
N             8.1574121046        8.1651676045        6.3474916565
N             8.1628173602        8.1641947694        9.9718622201
N             0.9067108017        2.7490687452        0.9067108017
N             0.9068953198        2.7488270863        4.5572370008
N             0.9064106430        2.7489621450        8.1331973777
N             0.9065328602        6.3249432094        0.9065328602
N             0.9059502404        6.3247320859        4.5574101164
N             0.9068843645        6.3248338569        8.1332874628
N             0.9074086307        9.3348441670        0.9074086307
N             0.9067254247        9.9754184864        4.5273083612
N             0.9066257123        9.9755740943        8.1640210656
N             4.5572370008        2.7488270863        0.9068953198
N             4.5376687030        2.7234183368        4.5376687030
N             4.5356755070        2.7214689812        8.1553024982
N             4.5574101164        6.3247320859        0.9059502404
N             4.5358358732        6.3514601857        4.5358358732
N             4.5378396203        6.3495348704        8.1532065067
N             4.5273083612        9.9754184864        0.9067254247
N             4.5273922408        9.9775681992        4.5273922408
N             4.5270913598        9.9732498401        8.1640215186
N             8.1331973777        2.7489621450        0.9064106430
N             8.1553024982        2.7214689812        4.5356755070
N             8.1534532423        2.7232315648        8.1534532423
N             8.1332874628        6.3248338569        0.9068843645
N             8.1532065067        6.3495348704        4.5378396203
N             8.1554394810        6.3513935714        8.1554394810
N             8.1640210656        9.9755740943        0.9066257123
N             8.1640215186        9.9732498401        4.5270913598
N             8.1641189960        9.9778669590        8.1641189960
N             2.7850984744        1.0122531215        0.9116720379
N             2.7215606918        0.9192432823        4.5384627111
N             2.7188873098        0.9093449176        8.1627879042
N             2.7287436329        4.5371747755        0.9065453478
N             2.7265193780        4.5364792848        4.5439683725
N             2.7264012031        4.5373238089        8.1468537949
N             2.7851725386        8.0611655675        0.9015180729
N             2.7190544924        8.1641102735        4.5284561182
N             2.7213825021        8.1542551568        8.1525849401
N             6.3452735989        0.9107304280        0.9065246647
N             6.3474083578        0.9081357867        4.5336164946
N             6.3432803069        0.9081557062        8.1574658382
N             6.3451788012        4.5367864836        0.9064545256
N             6.3453086050        4.5365535797        4.5362893445
N             6.3452855508        4.5365933183        8.1546571345
N             6.3453309611        8.1627118830        0.9064782187
N             6.3433920846        8.1650749465        4.5336435107
N             6.3474916565        8.1651676045        8.1574121046
N             9.9060686401        1.0121270675        0.9015236347
N             9.9717943249        0.9094222081        4.5282982054
N             9.9694388023        0.9193025513        8.1525734713
N             9.9619168677        4.5369874028        0.9064945080
N             9.9642347834        4.5369744938        4.5438838265
N             9.9642052789        4.5364744152        8.1469301980
N             9.9060552760        8.0614317533        0.9120957484
N             9.9691724531        8.1540781454        4.5385955428
N             9.9718622201        8.1641947694        8.1628173602
N             2.7332298351        2.7507754333        2.7332298351
N             2.7239649998        2.7223740680        6.3472573416
N             2.7320854782        2.7503807925        9.9585144175
N             2.7322935886        6.3234305542        2.7322935886
N             2.7239995579        6.3505116607        6.3430001987
N             2.7334427195        6.3231951707        9.9573817200
N             2.6885285869        9.9954531767        2.6885285869
N             2.7183191092        9.9755005380        6.3453791916
N             2.6884488386        9.9559095242       10.0029921758
N             6.3472573416        2.7223740680        2.7239649998
N             6.3452794423        2.7212033034        6.3452794423
N             6.3431336433        2.7225001551        9.9666467689
N             6.3430001987        6.3505116607        2.7239995579
N             6.3452914854        6.3514907980        6.3452914854
N             6.3474285700        6.3505112518        9.9664760215
N             6.3453791916        9.9755005380        2.7183191092
N             6.3453795931        9.9754046940        6.3453795931
N             6.3452820530        9.9755078023        9.9723166090
N             9.9585144175        2.7503807925        2.7320854782
N             9.9666467689        2.7225001551        6.3431336433
N             9.9576043693        2.7504458836        9.9576043693
N             9.9573817200        6.3231951707        2.7334427195
N             9.9664760215        6.3505112518        6.3474285700
N             9.9587723096        6.3234955602        9.9587723096
N            10.0029921758        9.9559095242        2.6884488386
N             9.9723166090        9.9755078023        6.3452820530
N            10.0033645322        9.9955206756       10.0033645322
N             0.9068826679       -0.2615856709        0.9068826679
K_POINTS gamma
CELL_PARAMETERS angstrom
     10.8780060000       0.0000000000       0.0000000000
      0.0000000000      10.8780060000       0.0000000000
      0.0000000000       0.0000000000      10.8780060000
