&CONTROL
  calculation = 'scf'
  etot_conv_thr =   2.1600000000d-03
  forc_conv_thr =   1.0000000000d-04
  outdir = './out/'
  prefix = 'aiida'
  pseudo_dir = './pseudo/'
  tprnfor = .true.
  !tstress = .true.
  verbosity = 'high'
  disk_io   = 'high'
  max_seconds = 14400
/
&SYSTEM
  degauss =   1.4699723600d-02
  ecutwfc =   10.0000000000d+01
  ibrav = 0
  nat = 217
  nosym = .false.
  ntyp = 2
  occupations = 'smearing'
  smearing = 'mv'
  tot_charge = -1
  nspin = 2
  starting_magnetization(1) =  0.5
  starting_magnetization(2) = -0.5
  input_dft = 'pbe0'
  exx_fraction = 0.23
  ecutfock = 120
  ace = .true.
  localization_thr = 0.001
/
&ELECTRONS
  conv_thr =   4.3200000000d-08
  electron_maxstep = 80
  mixing_beta =   4.0000000000d-01
  adaptive_thr = .True.
  conv_thr_init = 1.D-3 
  conv_thr_multi = 1.D-2
/
&IONS
/
ATOMIC_SPECIES
B      10.811 B_ONCV_PBE-1.2.upf
N      14.0067 N_ONCV_PBE-1.2.upf
ATOMIC_POSITIONS (angstrom)
B            -0.0254110740        0.2240711644       -0.0254110740
B             0.0195664267        0.0129807103        3.6064702348
B             0.0000904093        0.0044352436        7.2564647831
B            -0.0061257039        3.6404619616       -0.0061257039
B            -0.0054455815        3.6430257204        3.6411966212
B            -0.0012261718        3.6380504334        7.2387395272
B            -0.0178378611        7.2044811853       -0.0178378611
B            -0.0004326048        7.2048504861        3.6649326707
B            -0.0011079487        7.2534855220        7.2493700301
B             3.6064702348        0.0129807103        0.0195664267
B             3.6127550051        0.0055830378        3.6127550051
B             3.6224825737        0.0034624817        7.2564418284
B             3.6411966212        3.6430257204       -0.0054455815
B             3.6348728059        3.6382555205        3.6348728059
B             3.6305151677        3.6277036551        7.2486787907
B             3.6649326707        7.2048504861       -0.0004326048
B             3.6280823912        7.2538791493        3.6280823912
B             3.6293941310        7.2584433898        7.2495809470
B             7.2564647831        0.0044352436        0.0000904093
B             7.2564418284        0.0034624817        3.6224825737
B             7.2542692442        0.0027344366        7.2542692442
B             7.2387395272        3.6380504334       -0.0012261718
B             7.2486787907        3.6277036551        3.6305151677
B             7.2501007757        3.6288731595        7.2501007757
B             7.2493700301        7.2534855220       -0.0011079487
B             7.2495809470        7.2584433898        3.6293941310
B             7.2511027249        7.2596160428        7.2511027249
B            -0.0178752595        1.8688800070        1.8309230063
B            -0.0009960688        1.8200214987        5.4412363902
B            -0.0001278364        1.8684991213        9.0259381876
B            -0.0062498145        5.4332498205        1.8190713371
B            -0.0013009331        5.4354586850        5.4517988656
B            -0.0054611894        5.4306898082        9.0494385606
B            -0.0256601579        8.8488519243        1.8389115997
B             0.0000385411        9.0688256487        5.4344846315
B             0.0196156088        9.0601817988        9.0847854643
B             3.6648846699        1.8686396272        1.8133595031
B             3.6294420803        1.8148352292        5.4411923933
B             3.6279295170        1.8196326832        9.0629715228
B             3.6413441041        5.4307737279        1.8184005358
B             3.6305261924        5.4456459449        5.4419895207
B             3.6348498578        5.4353348914        9.0559600625
B             3.6063863837        9.0600897508        1.7936729521
B             3.6225721572        9.0697770005        5.4346646597
B             3.6126275886        9.0675735031        9.0784420416
B             7.2493565565        1.8199860768        1.8139603689
B             7.2510623823        1.8135820430        5.4398110627
B             7.2496402082        1.8148360308        9.0615689689
B             7.2387088550        5.4355421757        1.8140493538
B             7.2500661180        5.4442852730        5.4407461807
B             7.2488181246        5.4455879800        9.0603479751
B             7.2564142980        9.0688897439        1.8128482813
B             7.2542011871        9.0705226168        5.4367792980
B             7.2564230545        9.0698477159        9.0684312241
B             1.8391102845        0.2242525335        1.8391102845
B             1.8129573480        0.0043556949        5.4344653857
B             1.7937209869        0.0129333977        9.0846849746
B             1.8191019574        3.6406852938        1.8191019574
B             1.8141049302        3.6380071825        5.4517531375
B             1.8183750010        3.6430487996        9.0493967679
B             1.8308444611        7.2043721663        1.8308444611
B             1.8138627375        7.2534186455        5.4413023179
B             1.8133465615        7.2048701870        9.0258330798
B             5.4344653857        0.0043556949        1.8129573480
B             5.4368510278        0.0026043495        5.4368510278
B             5.4345334156        0.0034342133        9.0684282717
B             5.4517531375        3.6380071825        1.8141049302
B             5.4407306459        3.6288636145        5.4407306459
B             5.4419605674        3.6276530900        9.0603511041
B             5.4413023179        7.2534186455        1.8138627375
B             5.4398452497        7.2595774568        5.4398452497
B             5.4412840141        7.2583565004        9.0614264740
B             9.0846849746        0.0129333977        1.7937209869
B             9.0684282717        0.0034342133        5.4345334156
B             9.0786636690        0.0056687332        9.0786636690
B             9.0493967679        3.6430487996        1.8183750010
B             9.0603511041        3.6276530900        5.4419605674
B             9.0561100807        3.6380536478        9.0561100807
B             9.0258330798        7.2048701870        1.8133465615
B             9.0614264740        7.2583565004        5.4412840141
B             9.0630204519        7.2537881605        9.0630204519
B             1.8309230063        1.8688800070       -0.0178752595
B             1.8133595031        1.8686396272        3.6648846699
B             1.8139603689        1.8199860768        7.2493565565
B             1.8190713371        5.4332498205       -0.0062498145
B             1.8184005358        5.4307737279        3.6413441041
B             1.8140493538        5.4355421757        7.2387088550
B             1.8389115997        8.8488519243       -0.0256601579
B             1.7936729521        9.0600897508        3.6063863837
B             1.8128482813        9.0688897439        7.2564142980
B             5.4412363902        1.8200214987       -0.0009960688
B             5.4411923933        1.8148352292        3.6294420803
B             5.4398110627        1.8135820430        7.2510623823
B             5.4517988656        5.4354586850       -0.0013009331
B             5.4419895207        5.4456459449        3.6305261924
B             5.4407461807        5.4442852730        7.2500661180
B             5.4344846315        9.0688256487        0.0000385411
B             5.4346646597        9.0697770005        3.6225721572
B             5.4367792980        9.0705226168        7.2542011871
B             9.0259381876        1.8684991213       -0.0001278364
B             9.0629715228        1.8196326832        3.6279295170
B             9.0615689689        1.8148360308        7.2496402082
B             9.0494385606        5.4306898082       -0.0054611894
B             9.0559600625        5.4353348914        3.6348498578
B             9.0603479751        5.4455879800        7.2488181246
B             9.0847854643        9.0601817988        0.0196156088
B             9.0784420416        9.0675735031        3.6126275886
B             9.0684312241        9.0698477159        7.2564230545
N             0.9137358800        1.0257497012        2.7951829308
N             0.9065574700        0.9109548539        6.3452744160
N             0.8996564890        1.0254740763        9.8957381288
N             0.9065793604        4.5371505845        2.7298313902
N             0.9064793685        4.5368534207        6.3451501824
N             0.9064959356        4.5368973106        9.9608189447
N             0.8995422191        8.0472367344        2.7949773765
N             0.9064954555        8.1625863110        6.3453204148
N             0.9138198863        8.0474093985        9.8957587711
N             4.5388863114        0.9197452956        2.7214463567
N             4.5340878353        0.9081940897        6.3470362140
N             4.5295530092        0.9112836108        9.9709200208
N             4.5455828052        4.5365206175        2.7276703051
N             4.5369174938        4.5366734776        6.3453162877
N             4.5454779842        4.5370602809        9.9631443972
N             4.5296688922        8.1622717344        2.7199215361
N             4.5340437847        8.1651450152        6.3437948972
N             4.5389875567        8.1535936746        9.9694010398
N             8.1615142992        0.9112654083        2.7198888967
N             8.1570723378        0.9082248451        6.3437056887
N             8.1521594259        0.9197753139        9.9696041250
N             8.1452313307        4.5374184315        2.7275362369
N             8.1540800845        4.5367062463        6.3453092884
N             8.1453049882        4.5364422357        9.9631267879
N             8.1521699722        8.1537837946        2.7211935615
N             8.1570230968        8.1652045701        6.3470930595
N             8.1615649282        8.1623126985        9.9709035596
N             0.9066866545        2.7508395713        0.9066866545
N             0.9069753373        2.7537430184        4.5620816219
N             0.9063182346        2.7538577820        8.1282313481
N             0.9064750432        6.3228057705        0.9064750432
N             0.9059399065        6.3199125691        4.5622841593
N             0.9069302822        6.3200011179        8.1282762584
N             0.9070237774        9.3182976308        0.9070237774
N             0.9067522760        9.9753770195        4.5256371221
N             0.9066479490        9.9755410783        8.1656151342
N             4.5620816219        2.7537430184        0.9069753373
N             4.5378620065        2.7232712171        4.5378620065
N             4.5369794995        2.7222258327        8.1540499625
N             4.5622841593        6.3199125691        0.9059399065
N             4.5370272389        6.3509126368        4.5370272389
N             4.5379694319        6.3498468348        8.1531046383
N             4.5256371221        9.9753770195        0.9067522760
N             4.5274829995        9.9771462722        4.5274829995
N             4.5272100894        9.9737042222        8.1639677026
N             8.1282313481        2.7538577820        0.9063182346
N             8.1540499625        2.7222258327        4.5369794995
N             8.1533301577        2.7230615876        8.1533301577
N             8.1282762584        6.3200011179        0.9069302822
N             8.1531046383        6.3498468348        4.5379694319
N             8.1542315540        6.3507376723        8.1542315540
N             8.1656151342        9.9755410783        0.9066479490
N             8.1639677026        9.9737042222        4.5272100894
N             8.1640610421        9.9774310595        8.1640610421
N             2.7951829308        1.0257497012        0.9137358800
N             2.7214463567        0.9197452956        4.5388863114
N             2.7198888967        0.9112654083        8.1615142992
N             2.7298313902        4.5371505845        0.9065793604
N             2.7276703051        4.5365206175        4.5455828052
N             2.7275362369        4.5374184315        8.1452313307
N             2.7949773765        8.0472367344        0.8995422191
N             2.7199215361        8.1622717344        4.5296688922
N             2.7211935615        8.1537837946        8.1521699722
N             6.3452744160        0.9109548539        0.9065574700
N             6.3470362140        0.9081940897        4.5340878353
N             6.3437056887        0.9082248451        8.1570723378
N             6.3451501824        4.5368534207        0.9064793685
N             6.3453162877        4.5366734776        4.5369174938
N             6.3453092884        4.5367062463        8.1540800845
N             6.3453204148        8.1625863110        0.9064954555
N             6.3437948972        8.1651450152        4.5340437847
N             6.3470930595        8.1652045701        8.1570230968
N             9.8957381288        1.0254740763        0.8996564890
N             9.9709200208        0.9112836108        4.5295530092
N             9.9696041250        0.9197753139        8.1521594259
N             9.9608189447        4.5368973106        0.9064959356
N             9.9631443972        4.5370602809        4.5454779842
N             9.9631267879        4.5364422357        8.1453049882
N             9.8957587711        8.0474093985        0.9138198863
N             9.9694010398        8.1535936746        4.5389875567
N             9.9709035596        8.1623126985        8.1615649282
N             2.7345995873        2.7546953591        2.7345995873
N             2.7248944949        2.7228351206        6.3467221399
N             2.7341461134        2.7537212012        9.9565701019
N             2.7343022062        6.3201307048        2.7343022062
N             2.7248860257        6.3502090016        6.3434969957
N             2.7347262928        6.3193442163        9.9560552226
N             2.6878045900        9.9936570315        2.6878045900
N             2.7181711940        9.9755391919        6.3453693333
N             2.6877366003        9.9574379090       10.0036730758
N             6.3467221399        2.7228351206        2.7248944949
N             6.3453151409        2.7213181690        6.3453151409
N             6.3436431799        2.7229541896        9.9657733719
N             6.3434969957        6.3502090016        2.7248860257
N             6.3452949460        6.3516018947        6.3452949460
N             6.3469177018        6.3502033156        9.9656468569
N             6.3453693333        9.9755391919        2.7181711940
N             6.3454105236        9.9754716535        6.3454105236
N             6.3453104568        9.9755182913        9.9725192926
N             9.9565701019        2.7537212012        2.7341461134
N             9.9657733719        2.7229541896        6.3436431799
N             9.9563458171        2.7541484290        9.9563458171
N             9.9560552226        6.3193442163        2.7347262928
N             9.9656468569        6.3502033156        6.3469177018
N             9.9567100873        6.3199747735        9.9567100873
N            10.0036730758        9.9574379090        2.6877366003
N             9.9725192926        9.9755182913        6.3453104568
N            10.0041040822        9.9937125758       10.0041040822
N             0.9069389065       -0.2453642682        0.9069389065
K_POINTS gamma
CELL_PARAMETERS angstrom
     10.8780060000       0.0000000000       0.0000000000
      0.0000000000      10.8780060000       0.0000000000
      0.0000000000       0.0000000000      10.8780060000
