&CONTROL
  calculation = 'scf'
  etot_conv_thr =   2.1600000000d-03
  forc_conv_thr =   1.0000000000d-04
  outdir = './out/'
  prefix = 'aiida'
  pseudo_dir = './pseudo/'
  tprnfor = .true.
  !tstress = .true.
  verbosity = 'high'
  disk_io   = 'high'
  max_seconds = 14400
/
&SYSTEM
  degauss =   1.4699723600d-02
  ecutwfc =   10.0000000000d+01
  ibrav = 0
  nat = 217
  nosym = .false.
  ntyp = 2
  occupations = 'smearing'
  smearing = 'mv'
  tot_charge = 1
  nspin = 2
  starting_magnetization(1) =  0.5
  starting_magnetization(2) = -0.5
  input_dft = 'pbe0'
  exx_fraction = 0.23
  ecutfock = 120
  ace = .true.
  localization_thr = 0.001
/
&ELECTRONS
  conv_thr =   4.3200000000d-08
  electron_maxstep = 80
  mixing_beta =   4.0000000000d-01
  adaptive_thr = .True.
  conv_thr_init = 1.D-3 
  conv_thr_multi = 1.D-2
/
&IONS
/
ATOMIC_SPECIES
B      10.811 B_ONCV_PBE-1.2.upf
N      14.0067 N_ONCV_PBE-1.2.upf
ATOMIC_POSITIONS (angstrom)
B            -0.0853812791        0.2249640860       -0.0853812791
B             0.0117888846        0.0087944504        3.6312997242
B            -0.0026509006        0.0068072766        7.2489226699
B            -0.0072703163        3.6439049889       -0.0072703163
B            -0.0044069550        3.6425109487        3.6401753168
B            -0.0028389544        3.6374036046        7.2400411208
B            -0.0162380873        7.1956947138       -0.0162380873
B            -0.0101672497        7.2067880053        3.6674424973
B            -0.0010111800        7.2526381899        7.2480576960
B             3.6312997242        0.0087944504        0.0117888846
B             3.6307533025        0.0150285809        3.6307533025
B             3.6261599036        0.0028932117        7.2529538086
B             3.6401753168        3.6425109487       -0.0044069550
B             3.6369075779        3.6395383338        3.6369075779
B             3.6308462242        3.6287121374        7.2491841301
B             3.6674424973        7.2067880053       -0.0101672497
B             3.6293815664        7.2536337390        3.6293815664
B             3.6328590929        7.2536736697        7.2453908040
B             7.2489226699        0.0068072766       -0.0026509006
B             7.2529538086        0.0028932117        3.6261599036
B             7.2511716309        0.0049768463        7.2511716309
B             7.2400411208        3.6374036046       -0.0028389544
B             7.2491841301        3.6287121374        3.6308462242
B             7.2490629559        3.6303100011        7.2490629559
B             7.2480576960        7.2526381899       -0.0010111800
B             7.2453908040        7.2536736697        3.6328590929
B             7.2509824795        7.2573974962        7.2509824795
B            -0.0163766849        1.8781730435        1.8295347274
B            -0.0009680962        1.8206838504        5.4426752049
B            -0.0099069070        1.8668145686        9.0234397817
B            -0.0073540968        5.4297860649        1.8202403878
B            -0.0029765061        5.4359441131        5.4505858541
B            -0.0043509244        5.4310697666        9.0506208632
B            -0.0853116950        8.8492089742        1.8987315111
B            -0.0027036490        9.0663856385        5.4419883510
B             0.0118975112        9.0646768389        9.0601388238
B             3.6674890286        1.8667195958        1.8230523056
B             3.6329204021        1.8193891584        5.4453794361
B             3.6292526691        1.8196681956        9.0615739552
B             3.6402426961        5.4310621855        1.8172150324
B             3.6308291672        5.4444303138        5.4414931922
B             3.6369122512        5.4338346983        9.0538865172
B             3.6311908961        9.0645407095        1.8013576322
B             3.6261982705        9.0701280226        5.4380367828
B             3.6306027648        9.0581298833        9.0603886099
B             7.2480363954        1.8206233637        1.8138678095
B             7.2509150613        1.8156637875        5.4399038362
B             7.2454515914        1.8194033642        9.0580263533
B             7.2400340509        5.4360229345        1.8156618128
B             7.2490445072        5.4426637423        5.4417231263
B             7.2493187943        5.4444373300        9.0599754279
B             7.2489926858        9.0664537989        1.8155165656
B             7.2511698825        9.0681041216        5.4397585332
B             7.2530456556        9.0702421846        9.0647864378
B             1.8988411095        0.2247975190        1.8988411095
B             1.8156085104        0.0067096027        5.4419853889
B             1.8013664380        0.0088594594        9.0600273188
B             1.8202745790        3.6440286842        1.8202745790
B             1.8156874482        3.6373459973        5.4505860550
B             1.8172829231        3.6425791150        9.0505025874
B             1.8294377198        7.1955607619        1.8294377198
B             1.8137394089        7.2526073631        5.4426570426
B             1.8229742848        7.2068456957        9.0235538373
B             5.4419853889        0.0067096027        1.8156085104
B             5.4398051974        0.0048346363        5.4398051974
B             5.4379499654        0.0029017822        9.0646986123
B             5.4505860550        3.6373459973        1.8156874482
B             5.4416903291        3.6302906890        5.4416903291
B             5.4414915772        3.6286591826        9.0599709839
B             5.4426570426        7.2526073631        1.8137394089
B             5.4399429549        7.2572948556        5.4399429549
B             5.4454571134        7.2536617586        9.0578794536
B             9.0600273188        0.0088594594        1.8013664380
B             9.0646986123        0.0029017822        5.4379499654
B             9.0605435353        0.0151773996        9.0605435353
B             9.0505025874        3.6425791150        1.8172829231
B             9.0599709839        3.6286591826        5.4414915772
B             9.0539752861        3.6394952308        9.0539752861
B             9.0235538373        7.2068456957        1.8229742848
B             9.0578794536        7.2536617586        5.4454571134
B             9.0617670226        7.2536822274        9.0617670226
B             1.8295347274        1.8781730435       -0.0163766849
B             1.8230523056        1.8667195958        3.6674890286
B             1.8138678095        1.8206233637        7.2480363954
B             1.8202403878        5.4297860649       -0.0073540968
B             1.8172150324        5.4310621855        3.6402426961
B             1.8156618128        5.4360229345        7.2400340509
B             1.8987315111        8.8492089742       -0.0853116950
B             1.8013576322        9.0645407095        3.6311908961
B             1.8155165656        9.0664537989        7.2489926858
B             5.4426752049        1.8206838504       -0.0009680962
B             5.4453794361        1.8193891584        3.6329204021
B             5.4399038362        1.8156637875        7.2509150613
B             5.4505858541        5.4359441131       -0.0029765061
B             5.4414931922        5.4444303138        3.6308291672
B             5.4417231263        5.4426637423        7.2490445072
B             5.4419883510        9.0663856385       -0.0027036490
B             5.4380367828        9.0701280226        3.6261982705
B             5.4397585332        9.0681041216        7.2511698825
B             9.0234397817        1.8668145686       -0.0099069070
B             9.0615739552        1.8196681956        3.6292526691
B             9.0580263533        1.8194033642        7.2454515914
B             9.0506208632        5.4310697666       -0.0043509244
B             9.0538865172        5.4338346983        3.6369122512
B             9.0599754279        5.4444373300        7.2493187943
B             9.0601388238        9.0646768389        0.0118975112
B             9.0603886099        9.0581298833        3.6306027648
B             9.0647864378        9.0702421846        7.2530456556
N             0.9100548544        0.9965790091        2.7759643291
N             0.9065271307        0.9108359465        6.3453088211
N             0.9032187334        0.9968716839        9.9153777244
N             0.9065473700        4.5370141730        2.7273807462
N             0.9064533644        4.5367893190        6.3452099967
N             0.9065088263        4.5368650592        9.9633310349
N             0.9030979713        8.0771261723        2.7758527661
N             0.9064689499        8.1625720898        6.3453523241
N             0.9103243102        8.0773262180        9.9155616357
N             4.5389215547        0.9188872011        2.7223941970
N             4.5335419869        0.9084823040        6.3478191001
N             4.5280252677        0.9080145839        9.9723054330
N             4.5421628116        4.5367973971        2.7252803468
N             4.5356401854        4.5365798099        6.3452937623
N             4.5420982858        4.5366013722        9.9654191105
N             4.5280008270        8.1654722133        2.7184146152
N             4.5334829697        8.1646692305        6.3429562202
N             4.5389738010        8.1543697266        9.9683849794
N             8.1631007454        0.9079032170        2.7183770945
N             8.1575384325        0.9084938846        6.3428786650
N             8.1521399708        0.9189883896        9.9686280117
N             8.1487012039        4.5369096243        2.7252067787
N             8.1552933665        4.5366145648        6.3453103345
N             8.1487702515        4.5368133197        9.9654273640
N             8.1522339754        8.1545524692        2.7221155759
N             8.1575471542        8.1647717014        6.3479110551
N             8.1632374699        8.1655659584        9.9725064740
N             0.9067915804        2.7457775152        0.9067915804
N             0.9070354713        2.7441467035        4.5527845889
N             0.9063189893        2.7442637142        8.1378548845
N             0.9065579848        6.3280091650        0.9065579848
N             0.9057825279        6.3293023124        4.5528039207
N             0.9070419822        6.3293273405        8.1379664470
N             0.9068674555        9.3520031908        0.9068674555
N             0.9066722220        9.9754622327        4.5297410011
N             0.9066478055        9.9756152410        8.1616941557
N             4.5527845889        2.7441467035        0.9070354713
N             4.5376001884        2.7240081949        4.5376001884
N             4.5344463195        2.7210521936        8.1565491570
N             4.5528039207        6.3293023124        0.9057825279
N             4.5345173103        6.3518494773        4.5345173103
N             4.5376935190        6.3489260186        8.1533259592
N             4.5297410011        9.9754622327        0.9066722220
N             4.5283906347        9.9778794441        4.5283906347
N             4.5281587940        9.9728369039        8.1629537799
N             8.1378548845        2.7442637142        0.9063189893
N             8.1565491570        2.7210521936        4.5344463195
N             8.1535322397        2.7238312374        8.1535322397
N             8.1379664470        6.3293273405        0.9070419822
N             8.1533259592        6.3489260186        4.5376935190
N             8.1567611201        6.3518428964        8.1567611201
N             8.1616941557        9.9756152410        0.9066478055
N             8.1629537799        9.9728369039        4.5281587940
N             8.1630721940        9.9781578810        8.1630721940
N             2.7759643291        0.9965790091        0.9100548544
N             2.7223941970        0.9188872011        4.5389215547
N             2.7183770945        0.9079032170        8.1631007454
N             2.7273807462        4.5370141730        0.9065473700
N             2.7252803468        4.5367973971        4.5421628116
N             2.7252067787        4.5369096243        8.1487012039
N             2.7758527661        8.0771261723        0.9030979713
N             2.7184146152        8.1654722133        4.5280008270
N             2.7221155759        8.1545524692        8.1522339754
N             6.3453088211        0.9108359465        0.9065271307
N             6.3478191001        0.9084823040        4.5335419869
N             6.3428786650        0.9084938846        8.1575384325
N             6.3452099967        4.5367893190        0.9064533644
N             6.3452937623        4.5365798099        4.5356401854
N             6.3453103345        4.5366145648        8.1552933665
N             6.3453523241        8.1625720898        0.9064689499
N             6.3429562202        8.1646692305        4.5334829697
N             6.3479110551        8.1647717014        8.1575471542
N             9.9153777244        0.9968716839        0.9032187334
N             9.9723054330        0.9080145839        4.5280252677
N             9.9686280117        0.9189883896        8.1521399708
N             9.9633310349        4.5368650592        0.9065088263
N             9.9654191105        4.5366013722        4.5420982858
N             9.9654273640        4.5368133197        8.1487702515
N             9.9155616357        8.0773262180        0.9103243102
N             9.9683849794        8.1543697266        4.5389738010
N             9.9725064740        8.1655659584        8.1632374699
N             2.7320168446        2.7468256503        2.7320168446
N             2.7231915694        2.7224660328        6.3477831881
N             2.7296424457        2.7459317217        9.9609391199
N             2.7297159977        6.3276720285        2.7297159977
N             2.7231680220        6.3504199029        6.3425186726
N             2.7321356114        6.3268723074        9.9586866589
N             2.6923005392        9.9951580030        2.6923005392
N             2.7187472803        9.9754391985        6.3453514401
N             2.6923253179        9.9563433601        9.9990549182
N             6.3477831881        2.7224660328        2.7231915694
N             6.3452767164        2.7214822934        6.3452767164
N             6.3426743903        2.7225983094        9.9674180616
N             6.3425186726        6.3504199029        2.7231680220
N             6.3452876965        6.3512600194        6.3452876965
N             6.3479287275        6.3504055364        9.9672718827
N             6.3453514401        9.9754391985        2.7187472803
N             6.3453558773        9.9753721553        6.3453558773
N             6.3453235647        9.9754603951        9.9718778616
N             9.9609391199        2.7459317217        2.7296424457
N             9.9674180616        2.7225983094        6.3426743903
N             9.9587928596        2.7467040078        9.9587928596
N             9.9586866589        6.3268723074        2.7321356114
N             9.9672718827        6.3504055364        6.3479287275
N             9.9613197206        6.3278107691        9.9613197206
N             9.9990549182        9.9563433601        2.6923253179
N             9.9718778616        9.9754603951        6.3453235647
N             9.9993054353        9.9953879651        9.9993054353
N             0.9067733397       -0.2770242078        0.9067733397
K_POINTS gamma
CELL_PARAMETERS angstrom
     10.8780060000       0.0000000000       0.0000000000
      0.0000000000      10.8780060000       0.0000000000
      0.0000000000       0.0000000000      10.8780060000
