&CONTROL
  calculation = 'scf'
  etot_conv_thr =   2.1600000000d-03
  forc_conv_thr =   1.0000000000d-04
  outdir = './out/'
  prefix = 'aiida'
  pseudo_dir = './pseudo/'
  tprnfor = .true.
  !tstress = .true.
  verbosity = 'high'
  disk_io   = 'high'
  max_seconds = 14400
/
&SYSTEM
  degauss =   1.4699723600d-02
  ecutwfc =   10.0000000000d+01
  ibrav = 0
  nat = 217
  nosym = .false.
  ntyp = 2
  occupations = 'smearing'
  smearing = 'mv'
  tot_charge = -2
  nspin = 2
  starting_magnetization(1) =  0.5
  starting_magnetization(2) = -0.5
  input_dft = 'pbe0'
  exx_fraction = 0.23
  ecutfock = 120
  ace = .true.
  localization_thr = 0.001
/
&ELECTRONS
  conv_thr =   4.3200000000d-08
  electron_maxstep = 80
  mixing_beta =   4.0000000000d-01
  adaptive_thr = .True.
  conv_thr_init = 1.D-3 
  conv_thr_multi = 1.D-2
/
&IONS
/
ATOMIC_SPECIES
B      10.811 B_ONCV_PBE-1.2.upf
N      14.0067 N_ONCV_PBE-1.2.upf
ATOMIC_POSITIONS (angstrom)
B            -0.1095388433        0.2385320984       -0.1095388433
B             0.0163766111        0.0158117615        3.6200539919
B            -0.0029570396        0.0062434660        7.2520167117
B            -0.0066150424        3.6379249014       -0.0066150424
B            -0.0052334305        3.6422713089        3.6386159870
B            -0.0025620220        3.6399172817        7.2378315310
B            -0.0193187338        7.2125605477       -0.0193187338
B            -0.0010265865        7.2048163666        3.6684050235
B            -0.0034963003        7.2513712845        7.2466916676
B             3.6200539919        0.0158117615        0.0163766111
B             3.6272301033        0.0012389708        3.6272301033
B             3.6232359615        0.0045387830        7.2543230199
B             3.6386159870        3.6422713089       -0.0052334305
B             3.6339744860        3.6379023647        3.6339744860
B             3.6291765227        3.6285751214        7.2488183807
B             3.6684050235        7.2048163666       -0.0010265865
B             3.6291797614        7.2525223090        3.6291797614
B             3.6292947198        7.2568030976        7.2494328226
B             7.2520167117        0.0062434660       -0.0029570396
B             7.2543230199        0.0045387830        3.6232359615
B             7.2492218233        0.0021606464        7.2492218233
B             7.2378315310        3.6399172817       -0.0025620220
B             7.2488183807        3.6285751214        3.6291765227
B             7.2488025044        3.6292912582        7.2488025044
B             7.2466916676        7.2513712845       -0.0034963003
B             7.2494328226        7.2568030976        3.6292947198
B             7.2492623870        7.2576387248        7.2492623870
B            -0.0153967840        1.8574492091        1.8283920947
B            -0.0017918638        1.8244128259        5.4433189958
B            -0.0026268942        1.8657250534        9.0217594839
B            -0.0057752398        5.4364122483        1.8187117367
B            -0.0021025165        5.4353205796        5.4517301019
B            -0.0070094871        5.4316043765        9.0514928508
B            -0.0284616309        8.8453746815        1.8419444461
B            -0.0006217517        9.0695585135        5.4368324103
B             0.0088810412        9.0617509442        9.0758707122
B             3.6689689534        1.8656621281        1.8157360135
B             3.6298488455        1.8177223446        5.4444162453
B             3.6268604127        1.8222047242        9.0641174413
B             3.6394227736        5.4316095180        1.8200963477
B             3.6300990091        5.4459128671        5.4436218209
B             3.6327209845        5.4364295339        9.0581974215
B             3.6149581064        9.0616612080        1.8041100585
B             3.6259070188        9.0697386544        5.4396850935
B             3.6130128628        9.0687994428        9.0781717033
B             7.2473397844        1.8243951905        1.8148070582
B             7.2504206083        1.8163440025        5.4405171506
B             7.2463811835        1.8177594004        9.0611758401
B             7.2388953965        5.4354171752        1.8150163362
B             7.2494013538        5.4446979582        5.4415486757
B             7.2472904240        5.4458633009        9.0609139267
B             7.2541629801        9.0696199770        1.8136334133
B             7.2531700103        9.0704578413        5.4378094236
B             7.2512915835        9.0696587862        9.0650711704
B             1.9217117143        0.2387809739        1.9217117143
B             1.8160088679        0.0061490198        5.4388730255
B             1.7969000881        0.0157961514        9.0712161108
B             1.8196927723        3.6380920532        1.8196927723
B             1.8155258902        3.6398318442        5.4527056402
B             1.8182082242        3.6423176393        9.0520194891
B             1.8324528994        7.2122328827        1.8324528994
B             1.8163562413        7.2513845124        5.4439854519
B             1.8140392005        7.2049916488        9.0224851568
B             5.4388730255        0.0061490198        1.8160088679
B             5.4416328962        0.0021932667        5.4416328962
B             5.4367024540        0.0044803313        9.0677239160
B             5.4527056402        3.6398318442        1.8155258902
B             5.4421276523        3.6292846424        5.4421276523
B             5.4419107681        3.6285344340        9.0617875269
B             5.4439854519        7.2513845124        1.8163562413
B             5.4417348881        7.2576533191        5.4417348881
B             5.4414800045        7.2566890963        9.0616732217
B             9.0712161108        0.0157961514        1.7969000881
B             9.0677239160        0.0044803313        5.4367024540
B             9.0635173579        0.0012563556        9.0635173579
B             9.0520194891        3.6423176393        1.8182082242
B             9.0617875269        3.6285344340        5.4419107681
B             9.0570802178        3.6378156366        9.0570802178
B             9.0224851568        7.2049916488        1.8140392005
B             9.0616732217        7.2566890963        5.4414800045
B             9.0620137169        7.2523971059        9.0620137169
B             1.8283920947        1.8574492091       -0.0153967840
B             1.8157360135        1.8656621281        3.6689689534
B             1.8148070582        1.8243951905        7.2473397844
B             1.8187117367        5.4364122483       -0.0057752398
B             1.8200963477        5.4316095180        3.6394227736
B             1.8150163362        5.4354171752        7.2388953965
B             1.8419444461        8.8453746815       -0.0284616309
B             1.8041100585        9.0616612080        3.6149581064
B             1.8136334133        9.0696199770        7.2541629801
B             5.4433189958        1.8244128259       -0.0017918638
B             5.4444162453        1.8177223446        3.6298488455
B             5.4405171506        1.8163440025        7.2504206083
B             5.4517301019        5.4353205796       -0.0021025165
B             5.4436218209        5.4459128671        3.6300990091
B             5.4415486757        5.4446979582        7.2494013538
B             5.4368324103        9.0695585135       -0.0006217517
B             5.4396850935        9.0697386544        3.6259070188
B             5.4378094236        9.0704578413        7.2531700103
B             9.0217594839        1.8657250534       -0.0026268942
B             9.0641174413        1.8222047242        3.6268604127
B             9.0611758401        1.8177594004        7.2463811835
B             9.0514928508        5.4316043765       -0.0070094871
B             9.0581974215        5.4364295339        3.6327209845
B             9.0609139267        5.4458633009        7.2472904240
B             9.0758707122        9.0617509442        0.0088810412
B             9.0781717033        9.0687994428        3.6130128628
B             9.0650711704        9.0696587862        7.2512915835
N             0.9101945839        1.0156361157        2.8062847413
N             0.9065799852        0.9138285639        6.3453147888
N             0.9028543566        1.0156562016        9.8845375792
N             0.9070714582        4.5369734117        2.7281207077
N             0.9065444501        4.5377631597        6.3451989452
N             0.9061171553        4.5367746396        9.9626195432
N             0.9013560895        8.0529647698        2.8051262704
N             0.9065720289        8.1617459938        6.3453545351
N             0.9120108088        8.0535155332        9.8857015604
N             4.5452119370        0.9202159970        2.7251759368
N             4.5355817204        0.9099586151        6.3483723467
N             4.5329645421        0.9137793465        9.9696648480
N             4.5452368104        4.5372358883        2.7281012658
N             4.5369811240        4.5371573222        6.3460055902
N             4.5436611942        4.5371072594        9.9638617657
N             4.5355607957        8.1602153100        2.7233462959
N             4.5352772392        8.1637842454        6.3458634955
N             4.5393159129        8.1550949145        9.9687801497
N             8.1581744073        0.9138182472        2.7212235522
N             8.1555327844        0.9099484505        6.3423978203
N             8.1456072483        0.9202990061        9.9657644181
N             8.1471638878        4.5374359109        2.7269369875
N             8.1541366411        4.5371847179        6.3447434117
N             8.1457452450        4.5372279390        9.9628306443
N             8.1519212996        8.1553271960        2.7219908985
N             8.1558455568        8.1637571335        6.3449721135
N             8.1555661057        8.1601221780        9.9675086683
N             0.9067784864        2.7407492116        0.9067784864
N             0.9076853797        2.7559654358        4.5626959984
N             0.9056063121        2.7561595970        8.1276023554
N             0.9065273781        6.3295851282        0.9065273781
N             0.9063540152        6.3195627363        4.5628357335
N             0.9066746102        6.3197076589        8.1278495216
N             0.9075274623        9.2593977916        0.9075274623
N             0.9079863333        9.9766897579        4.5307245698
N             0.9054453685        9.9767924443        8.1606370731
N             4.5626959984        2.7559654358        0.9076853797
N             4.5385370406        2.7247228749        4.5385370406
N             4.5363398221        2.7238300906        8.1548107005
N             4.5628357335        6.3195627363        0.9063540152
N             4.5380949435        6.3502563777        4.5380949435
N             4.5372735947        6.3494165783        8.1539147253
N             4.5307245698        9.9766897579        0.9079863333
N             4.5387336289        9.9767846878        4.5387336289
N             4.5269638364        9.9749761271        8.1642967422
N             8.1276023554        2.7561595970        0.9056063121
N             8.1548107005        2.7238300906        4.5363398221
N             8.1527371553        2.7245392246        8.1527371553
N             8.1278495216        6.3197076589        0.9066746102
N             8.1539147253        6.3494165783        4.5372735947
N             8.1532470366        6.3500357874        8.1532470366
N             8.1606370731        9.9767924443        0.9054453685
N             8.1642967422        9.9749761271        4.5269638364
N             8.1523859272        9.9766098159        8.1523859272
N             2.8062847413        1.0156361157        0.9101945839
N             2.7251759368        0.9202159970        4.5452119370
N             2.7212235522        0.9138182472        8.1581744073
N             2.7281207077        4.5369734117        0.9070714582
N             2.7281012658        4.5372358883        4.5452368104
N             2.7269369875        4.5374359109        8.1471638878
N             2.8051262704        8.0529647698        0.9013560895
N             2.7233462959        8.1602153100        4.5355607957
N             2.7219908985        8.1553271960        8.1519212996
N             6.3453147888        0.9138285639        0.9065799852
N             6.3483723467        0.9099586151        4.5355817204
N             6.3423978203        0.9099484505        8.1555327844
N             6.3451989452        4.5377631597        0.9065444501
N             6.3460055902        4.5371573222        4.5369811240
N             6.3447434117        4.5371847179        8.1541366411
N             6.3453545351        8.1617459938        0.9065720289
N             6.3458634955        8.1637842454        4.5352772392
N             6.3449721135        8.1637571335        8.1558455568
N             9.8845375792        1.0156562016        0.9028543566
N             9.9696648480        0.9137793465        4.5329645421
N             9.9657644181        0.9202990061        8.1456072483
N             9.9626195432        4.5367746396        0.9061171553
N             9.9638617657        4.5371072594        4.5436611942
N             9.9628306443        4.5372279390        8.1457452450
N             9.8857015604        8.0535155332        0.9120108088
N             9.9687801497        8.1550949145        4.5393159129
N             9.9675086683        8.1601221780        8.1555661057
N             2.7340749324        2.7523354969        2.7340749324
N             2.7252408177        2.7254597647        6.3472638143
N             2.7315402368        2.7499671468        9.9590926118
N             2.7343763424        6.3221070085        2.7343763424
N             2.7251849308        6.3492495493        6.3451953161
N             2.7337954865        6.3219900869        9.9570753773
N             2.7243538080        9.9898749754        2.7243538080
N             2.7196802771        9.9759430105        6.3466818390
N             2.6893232752        9.9688778782       10.0022558812
N             6.3472638143        2.7254597647        2.7252408177
N             6.3453475050        2.7227710541        6.3453475050
N             6.3430987746        2.7256171819        9.9654630616
N             6.3451953161        6.3492495493        2.7251849308
N             6.3453443831        6.3508244549        6.3453443831
N             6.3452926711        6.3492376509        9.9655091910
N             6.3466818390        9.9759430105        2.7196802771
N             6.3453061824        9.9757990369        6.3453061824
N             6.3440422243        9.9759181971        9.9710589782
N             9.9590926118        2.7499671468        2.7315402368
N             9.9654630616        2.7256171819        6.3430987746
N             9.9568609182        2.7520037680        9.9568609182
N             9.9570753773        6.3219900869        2.7337954865
N             9.9655091910        6.3492376509        6.3452926711
N             9.9567837359        6.3220866330        9.9567837359
N            10.0022558812        9.9688778782        2.6893232752
N             9.9710589782        9.9759181971        6.3440422243
N             9.9658239075        9.9898327057        9.9658239075
B             0.9059709727       -0.2911492770        0.9059709727
K_POINTS gamma
CELL_PARAMETERS angstrom
     10.8780060000       0.0000000000       0.0000000000
      0.0000000000      10.8780060000       0.0000000000
      0.0000000000       0.0000000000      10.8780060000
