&CONTROL
  calculation = 'scf'
  etot_conv_thr =   2.1600000000d-03
  forc_conv_thr =   1.0000000000d-04
  outdir = './out/'
  prefix = 'aiida'
  pseudo_dir = './pseudo/'
  tprnfor = .true.
  !tstress = .true.
  verbosity = 'high'
  disk_io   = 'high'
  max_seconds = 14400
/
&SYSTEM
  degauss =   1.4699723600d-02
  ecutwfc =   10.0000000000d+01
  ibrav = 0
  nat = 215
  nosym = .false.
  ntyp = 2
  occupations = 'smearing'
  smearing = 'mv'
  tot_charge = -2
  nspin = 2
  starting_magnetization(1) =  0.5
  starting_magnetization(2) = -0.5
  input_dft = 'pbe0'
  exx_fraction = 0.23
  ecutfock = 120
  ace = .true.
  localization_thr = 0.001
/
&ELECTRONS
  conv_thr =   4.3200000000d-08
  electron_maxstep = 80
  mixing_beta =   4.0000000000d-01
  adaptive_thr = .True.
  conv_thr_init = 1.D-3 
  conv_thr_multi = 1.D-2
/
&IONS
/
ATOMIC_SPECIES
B      10.811 B_ONCV_PBE-1.2.upf
N      14.0067 N_ONCV_PBE-1.2.upf
ATOMIC_POSITIONS (angstrom)
B            -0.0000000000       -0.0000000000        3.6127698380
B             0.0000000000       -0.0000000000        7.2652361620
B             0.0000000000        3.6127698380        0.0000000000
B            -0.0057676000        3.6265769620        3.6265769620
B             0.0057676000        3.6265769620        7.2514290380
B             0.0000000000        7.2652361620        0.0000000000
B             0.0057676000        7.2514290380        3.6265769620
B            -0.0057676000        7.2514290380        7.2514290380
B             3.6127698380       -0.0000000000       -0.0000000000
B             3.6265769620       -0.0057676000        3.6265769620
B             3.6265769620        0.0057676000        7.2514290380
B             3.6265769620        3.6265769620       -0.0057676000
B             3.6218651504        3.6218651504        3.6218651504
B             3.6269910196        3.6269910196        7.2510149804
B             3.6265769620        7.2514290380        0.0057676000
B             3.6269910196        7.2510149804        3.6269910196
B             3.6218651504        7.2561408496        7.2561408496
B             7.2652361620        0.0000000000       -0.0000000000
B             7.2514290380        0.0057676000        3.6265769620
B             7.2514290380       -0.0057676000        7.2514290380
B             7.2514290380        3.6265769620        0.0057676000
B             7.2510149804        3.6269910196        3.6269910196
B             7.2561408496        3.6218651504        7.2561408496
B             7.2514290380        7.2514290380       -0.0057676000
B             7.2561408496        7.2561408496        3.6218651504
B             7.2510149804        7.2510149804        7.2510149804
B            -0.0242992670        1.7871858157        1.7871858157
B             0.0000000000        1.8106381112        5.4390030000
B             0.0242992670        1.7871858157        9.0908201843
B             0.0000000000        5.4390030000        1.8106381112
B             0.0000000000        5.4390030000        5.4390030000
B             0.0000000000        5.4390030000        9.0673678888
B             0.0242992670        9.0908201843        1.7871858157
B            -0.0000000000        9.0673678888        5.4390030000
B            -0.0242992670        9.0908201843        9.0908201843
B             3.6151716041        1.8036893378        1.8036893378
B             3.6247343452        1.8122105907        5.4364809572
B             3.6247546295        1.8163719604        9.0616340396
B             3.6247343452        5.4364809572        1.8122105907
B             3.6250619860        5.4390030000        5.4390030000
B             3.6247343452        5.4415250428        9.0657954093
B             3.6247546295        9.0616340396        1.8163719604
B             3.6247343452        9.0657954093        5.4415250428
B             3.6151716041        9.0743166622        9.0743166622
B             7.2532513705        1.8163719604        1.8163719604
B             7.2532716548        1.8122105907        5.4415250428
B             7.2628343959        1.8036893378        9.0743166622
B             7.2532716548        5.4415250428        1.8122105907
B             7.2529440140        5.4390030000        5.4390030000
B             7.2532716548        5.4364809572        9.0657954093
B             7.2628343959        9.0743166622        1.8036893378
B             7.2532716548        9.0657954093        5.4364809572
B             7.2532513705        9.0616340396        9.0616340396
B             1.7871858157       -0.0242992670        1.7871858157
B             1.8106381112       -0.0000000000        5.4390030000
B             1.7871858157        0.0242992670        9.0908201843
B             1.8036893378        3.6151716041        1.8036893378
B             1.8122105907        3.6247343452        5.4364809572
B             1.8163719604        3.6247546295        9.0616340396
B             1.8163719604        7.2532513705        1.8163719604
B             1.8122105907        7.2532716548        5.4415250428
B             1.8036893378        7.2628343959        9.0743166622
B             5.4390030000       -0.0000000000        1.8106381112
B             5.4390030000        0.0000000000        5.4390030000
B             5.4390030000       -0.0000000000        9.0673678888
B             5.4364809572        3.6247343452        1.8122105907
B             5.4390030000        3.6250619860        5.4390030000
B             5.4415250428        3.6247343452        9.0657954093
B             5.4415250428        7.2532716548        1.8122105907
B             5.4390030000        7.2529440140        5.4390030000
B             5.4364809572        7.2532716548        9.0657954093
B             9.0908201843        0.0242992670        1.7871858157
B             9.0673678888        0.0000000000        5.4390030000
B             9.0908201843       -0.0242992670        9.0908201843
B             9.0616340396        3.6247546295        1.8163719604
B             9.0657954093        3.6247343452        5.4415250428
B             9.0743166622        3.6151716041        9.0743166622
B             9.0743166622        7.2628343959        1.8036893378
B             9.0657954093        7.2532716548        5.4364809572
B             9.0616340396        7.2532513705        9.0616340396
B             1.7871858157        1.7871858157       -0.0242992670
B             1.8036893378        1.8036893378        3.6151716041
B             1.8163719604        1.8163719604        7.2532513705
B             1.8106381112        5.4390030000        0.0000000000
B             1.8122105907        5.4364809572        3.6247343452
B             1.8122105907        5.4415250428        7.2532716548
B             1.7871858157        9.0908201843        0.0242992670
B             1.8163719604        9.0616340396        3.6247546295
B             1.8036893378        9.0743166622        7.2628343959
B             5.4390030000        1.8106381112       -0.0000000000
B             5.4364809572        1.8122105907        3.6247343452
B             5.4415250428        1.8122105907        7.2532716548
B             5.4390030000        5.4390030000        0.0000000000
B             5.4390030000        5.4390030000        3.6250619860
B             5.4390030000        5.4390030000        7.2529440140
B             5.4390030000        9.0673678888        0.0000000000
B             5.4415250428        9.0657954093        3.6247343452
B             5.4364809572        9.0657954093        7.2532716548
B             9.0908201843        1.7871858157        0.0242992670
B             9.0616340396        1.8163719604        3.6247546295
B             9.0743166622        1.8036893378        7.2628343959
B             9.0673678888        5.4390030000        0.0000000000
B             9.0657954093        5.4415250428        3.6247343452
B             9.0657954093        5.4364809572        7.2532716548
B             9.0908201843        9.0908201843       -0.0242992670
B             9.0743166622        9.0743166622        3.6151716041
B             9.0616340396        9.0616340396        7.2532513705
N             0.9025312758        0.9025312758        2.7180573297
N             0.9080346467        0.9080346467        6.3442595470
N             0.9887209822        0.9887209822        9.8892850178
N             0.9062052275        4.5326191638        2.7199826892
N             0.9077904421        4.5371428949        6.3408631051
N             0.9080346467        4.5337464530        9.9699713533
N             0.9128858587        8.1383600756        2.7396459244
N             0.9062052275        8.1580233108        6.3453868362
N             0.9025312758        8.1599486703        9.9754747242
N             4.5326191638        0.9062052275        2.7199826892
N             4.5371428949        0.9077904421        6.3408631051
N             4.5337464530        0.9080346467        9.9699713533
N             4.5316665343        4.5316665343        2.7201434249
N             4.5339704151        4.5339704151        6.3440355849
N             4.5371428949        4.5371428949        9.9702155579
N             4.5387159923        8.1542131489        2.7237928511
N             4.5316665343        8.1578625751        6.3463394657
N             4.5326191638        8.1580233108        9.9718007725
N             8.1383600756        0.9128858587        2.7396459244
N             8.1580233108        0.9062052275        6.3453868362
N             8.1599486703        0.9025312758        9.9754747242
N             8.1542131489        4.5387159923        2.7237928511
N             8.1578625751        4.5316665343        6.3463394657
N             8.1580233108        4.5326191638        9.9718007725
N             8.1613590045        8.1613590045        2.7166469955
N             8.1542131489        8.1542131489        6.3392900077
N             8.1383600756        8.1383600756        9.9651201413
N             0.9025312758        2.7180573297        0.9025312758
N             0.9062052275        2.7199826892        4.5326191638
N             0.9128858587        2.7396459244        8.1383600756
N             0.9080346467        6.3442595470        0.9080346467
N             0.9077904421        6.3408631051        4.5371428949
N             0.9062052275        6.3453868362        8.1580233108
N             0.9887209822        9.8892850178        0.9887209822
N             0.9080346467        9.9699713533        4.5337464530
N             0.9025312758        9.9754747242        8.1599486703
N             4.5326191638        2.7199826892        0.9062052275
N             4.5316665343        2.7201434249        4.5316665343
N             4.5387159923        2.7237928511        8.1542131489
N             4.5371428949        6.3408631051        0.9077904421
N             4.5339704151        6.3440355849        4.5339704151
N             4.5316665343        6.3463394657        8.1578625751
N             4.5337464530        9.9699713533        0.9080346467
N             4.5371428949        9.9702155579        4.5371428949
N             4.5326191638        9.9718007725        8.1580233108
N             8.1383600756        2.7396459244        0.9128858587
N             8.1542131489        2.7237928511        4.5387159923
N             8.1613590045        2.7166469955        8.1613590045
N             8.1580233108        6.3453868362        0.9062052275
N             8.1578625751        6.3463394657        4.5316665343
N             8.1542131489        6.3392900077        8.1542131489
N             8.1599486703        9.9754747242        0.9025312758
N             8.1580233108        9.9718007725        4.5326191638
N             8.1383600756        9.9651201413        8.1383600756
N             2.7180573297        0.9025312758        0.9025312758
N             2.7199826892        0.9062052275        4.5326191638
N             2.7396459244        0.9128858587        8.1383600756
N             2.7199826892        4.5326191638        0.9062052275
N             2.7201434249        4.5316665343        4.5316665343
N             2.7237928511        4.5387159923        8.1542131489
N             2.7396459244        8.1383600756        0.9128858587
N             2.7237928511        8.1542131489        4.5387159923
N             2.7166469955        8.1613590045        8.1613590045
N             6.3442595470        0.9080346467        0.9080346467
N             6.3408631051        0.9077904421        4.5371428949
N             6.3453868362        0.9062052275        8.1580233108
N             6.3408631051        4.5371428949        0.9077904421
N             6.3440355849        4.5339704151        4.5339704151
N             6.3463394657        4.5316665343        8.1578625751
N             6.3453868362        8.1580233108        0.9062052275
N             6.3463394657        8.1578625751        4.5316665343
N             6.3392900077        8.1542131489        8.1542131489
N             9.8892850178        0.9887209822        0.9887209822
N             9.9699713533        0.9080346467        4.5337464530
N             9.9754747242        0.9025312758        8.1599486703
N             9.9699713533        4.5337464530        0.9080346467
N             9.9702155579        4.5371428949        4.5371428949
N             9.9718007725        4.5326191638        8.1580233108
N             9.9754747242        8.1599486703        0.9025312758
N             9.9718007725        8.1580233108        4.5326191638
N             9.9651201413        8.1383600756        8.1383600756
N             2.7166469955        2.7166469955        2.7166469955
N             2.7237928511        2.7237928511        6.3392900077
N             2.7396459244        2.7396459244        9.9651201413
N             2.7237928511        6.3392900077        2.7237928511
N             2.7201434249        6.3463394657        6.3463394657
N             2.7199826892        6.3453868362        9.9718007725
N             2.7396459244        9.9651201413        2.7396459244
N             2.7199826892        9.9718007725        6.3453868362
N             2.7180573297        9.9754747242        9.9754747242
N             6.3392900077        2.7237928511        2.7237928511
N             6.3463394657        2.7201434249        6.3463394657
N             6.3453868362        2.7199826892        9.9718007725
N             6.3463394657        6.3463394657        2.7201434249
N             6.3440355849        6.3440355849        6.3440355849
N             6.3408631051        6.3408631051        9.9702155579
N             6.3453868362        9.9718007725        2.7199826892
N             6.3408631051        9.9702155579        6.3408631051
N             6.3442595470        9.9699713533        9.9699713533
N             9.9651201413        2.7396459244        2.7396459244
N             9.9718007725        2.7199826892        6.3453868362
N             9.9754747242        2.7180573297        9.9754747242
N             9.9718007725        6.3453868362        2.7199826892
N             9.9702155579        6.3408631051        6.3408631051
N             9.9699713533        6.3442595470        9.9699713533
N             9.9754747242        9.9754747242        2.7180573297
N             9.9699713533        9.9699713533        6.3442595470
N             9.8892850178        9.8892850178        9.8892850178
K_POINTS gamma
CELL_PARAMETERS angstrom
     10.8780060000       0.0000000000       0.0000000000
      0.0000000000      10.8780060000       0.0000000000
      0.0000000000       0.0000000000      10.8780060000
