&CONTROL
  calculation = 'scf'
  etot_conv_thr =   2.1600000000d-03
  forc_conv_thr =   1.0000000000d-04
  outdir = './out/'
  prefix = 'aiida'
  pseudo_dir = './pseudo/'
  tprnfor = .false.
  !tstress = .true.
  verbosity = 'high'
  disk_io   = 'high'
  max_seconds = 14400
  restart_mode = 'restart'
/
&SYSTEM
  degauss =   1.4699723600d-02
  ecutwfc =   10.0000000000d+01
  ibrav = 0
  nat = 215
  nosym = .false.
  ntyp = 2
  occupations = 'smearing'
  smearing = 'mv'
  tot_charge = 0
  nspin = 2
  starting_magnetization(1) =  0.5
  starting_magnetization(2) = -0.5
  input_dft = 'pbe0'
  exx_fraction = 0.23
  ecutfock = 120
  ace = .true.
  localization_thr = 0.001
/
&ELECTRONS
  conv_thr=1.0D-9
  adaptive_thr = .False.
  conv_thr_init = 1.D-3 
  conv_thr_multi = 1.D-5
  electron_maxstep=300
  mixing_mode = 'plain'
  mixing_beta = 0.6
  diagonalization = 'david'
  diago_full_acc = .TRUE.
  startingpot = 'file'
  startingwfc = 'file'
/
&IONS
/
ATOMIC_SPECIES
B      10.811 B_ONCV_PBE-1.2.upf
N      14.0067 N_ONCV_PBE-1.2.upf
ATOMIC_POSITIONS (angstrom)
B            -0.0293339402       -0.0293339402       -0.0293339402
B            -0.0027346449       -0.0027346449        3.6237518296
B             0.0004245686        0.0004245686        7.2533159667
B            -0.0027346449        3.6237518296       -0.0027346449
B            -0.0003296705        3.6229885712        3.6229885712
B             0.0003290750        3.6275430250        7.2512993909
B             0.0004245686        7.2533159667        0.0004245686
B             0.0003290750        7.2512993909        3.6275430250
B             0.0057875431        7.2547383149        7.2547383149
B             3.6237518296       -0.0027346449       -0.0027346449
B             3.6229885712       -0.0003296705        3.6229885712
B             3.6275430250        0.0003290750        7.2512993909
B             3.6229885712        3.6229885712       -0.0003296705
B             3.6249485629        3.6249485629        3.6249485629
B             3.6262410485        3.6262410485        7.2513861750
B             3.6275430250        7.2512993909        0.0003290750
B             3.6262410485        7.2513861750        3.6262410485
B             3.6299461945        7.2520746836        7.2520746836
B             7.2533159667        0.0004245686        0.0004245686
B             7.2512993909        0.0003290750        3.6275430250
B             7.2547383149        0.0057875431        7.2547383149
B             7.2512993909        3.6275430250        0.0003290750
B             7.2513861750        3.6262410485        3.6262410485
B             7.2520746836        3.6299461945        7.2520746836
B             7.2547383149        7.2547383149        0.0057875431
B             7.2520746836        7.2520746836        3.6299461945
B             7.2571534518        7.2571534518        7.2571534518
B            -0.0034176724        1.8028963496        1.8028963496
B            -0.0001279273        1.8130174357        5.4375156786
B            -0.0039727629        1.8107786551        9.0605064795
B            -0.0001279273        5.4375156786        1.8130174357
B             0.0014190152        5.4393481031        5.4393481031
B             0.0007397029        5.4398673894        9.0660754280
B            -0.0039727629        9.0605064795        1.8107786551
B             0.0007397029        9.0660754280        5.4398673894
B             0.0744088543        9.0357415795        9.0357415795
B             3.6219159660        1.8105864840        1.8105864840
B             3.6250847218        1.8131175960        5.4375413076
B             3.6247286973        1.8117179942        9.0639095090
B             3.6250847218        5.4375413076        1.8131175960
B             3.6270059581        5.4389568484        5.4389568484
B             3.6288546745        5.4378543558        9.0650559310
B             3.6247286973        9.0639095090        1.8117179942
B             3.6288546745        9.0650559310        5.4378543558
B             3.6278715624        9.0651449840        9.0651449840
B             7.2515761348        1.8129103062        1.8129103062
B             7.2511426840        1.8147157321        5.4382511998
B             7.2440348887        1.8219131798        9.0636209158
B             7.2511426840        5.4382511998        1.8147157321
B             7.2528754496        5.4413162245        5.4413162245
B             7.2553026289        5.4433632191        9.0667776836
B             7.2440348887        9.0636209158        1.8219131798
B             7.2553026289        9.0667776836        5.4433632191
B             7.2649358464        9.0745119779        9.0745119779
B             1.8028963496       -0.0034176724        1.8028963496
B             1.8130174357       -0.0001279273        5.4375156786
B             1.8107786551       -0.0039727629        9.0605064795
B             1.8105864840        3.6219159660        1.8105864840
B             1.8131175960        3.6250847218        5.4375413076
B             1.8117179942        3.6247286973        9.0639095090
B             1.8129103062        7.2515761348        1.8129103062
B             1.8147157321        7.2511426840        5.4382511998
B             1.8219131798        7.2440348887        9.0636209158
B             5.4375156786       -0.0001279273        1.8130174357
B             5.4393481031        0.0014190152        5.4393481031
B             5.4398673894        0.0007397029        9.0660754280
B             5.4375413076        3.6250847218        1.8131175960
B             5.4389568484        3.6270059581        5.4389568484
B             5.4378543558        3.6288546745        9.0650559310
B             5.4382511998        7.2511426840        1.8147157321
B             5.4413162245        7.2528754496        5.4413162245
B             5.4433632191        7.2553026289        9.0667776836
B             9.0605064795       -0.0039727629        1.8107786551
B             9.0660754280        0.0007397029        5.4398673894
B             9.0357415795        0.0744088543        9.0357415795
B             9.0639095090        3.6247286973        1.8117179942
B             9.0650559310        3.6288546745        5.4378543558
B             9.0651449840        3.6278715624        9.0651449840
B             9.0636209158        7.2440348887        1.8219131798
B             9.0667776836        7.2553026289        5.4433632191
B             9.0745119779        7.2649358464        9.0745119779
B             1.8028963496        1.8028963496       -0.0034176724
B             1.8105864840        1.8105864840        3.6219159660
B             1.8129103062        1.8129103062        7.2515761348
B             1.8130174357        5.4375156786       -0.0001279273
B             1.8131175960        5.4375413076        3.6250847218
B             1.8147157321        5.4382511998        7.2511426840
B             1.8107786551        9.0605064795       -0.0039727629
B             1.8117179942        9.0639095090        3.6247286973
B             1.8219131798        9.0636209158        7.2440348887
B             5.4375156786        1.8130174357       -0.0001279273
B             5.4375413076        1.8131175960        3.6250847218
B             5.4382511998        1.8147157321        7.2511426840
B             5.4393481031        5.4393481031        0.0014190152
B             5.4389568484        5.4389568484        3.6270059581
B             5.4413162245        5.4413162245        7.2528754496
B             5.4398673894        9.0660754280        0.0007397029
B             5.4378543558        9.0650559310        3.6288546745
B             5.4433632191        9.0667776836        7.2553026289
B             9.0605064795        1.8107786551       -0.0039727629
B             9.0639095090        1.8117179942        3.6247286973
B             9.0636209158        1.8219131798        7.2440348887
B             9.0660754280        5.4398673894        0.0007397029
B             9.0650559310        5.4378543558        3.6288546745
B             9.0667776836        5.4433632191        7.2553026289
B             9.0357415795        9.0357415795        0.0744088543
B             9.0651449840        9.0651449840        3.6278715624
B             9.0745119779        9.0745119779        7.2649358464
N             0.9013673735        0.9013673735        2.7118064310
N             0.9067955987        0.9067955987        6.3453436913
N             0.8847390372        0.8847390372        9.9583092566
N             0.9060005838        4.5296933265        2.7174304698
N             0.9075109534        4.5327332825        6.3446050620
N             0.9062834924        4.5319208743        9.9711940820
N             0.9062315396        8.1575773268        2.7194549633
N             0.9090288488        8.1590195005        6.3449304321
N             0.9166883530        8.1518599488        9.9711665466
N             4.5296933265        0.9060005838        2.7174304698
N             4.5327332825        0.9075109534        6.3446050620
N             4.5319208743        0.9062834924        9.9711940820
N             4.5316855341        4.5316855341        2.7192643682
N             4.5334684234        4.5334684234        6.3456044834
N             4.5319453840        4.5319453840        9.9715705175
N             4.5321754878        8.1583527614        2.7202219938
N             4.5360396786        8.1594405615        6.3467648339
N             4.5345507786        8.1592779622        9.9722192700
N             8.1575773268        0.9062315396        2.7194549633
N             8.1590195005        0.9090288488        6.3449304321
N             8.1518599488        0.9166883530        9.9711665466
N             8.1583527614        4.5321754878        2.7202219938
N             8.1594405615        4.5360396786        6.3467648339
N             8.1592779622        4.5345507786        9.9722192700
N             8.1574946564        8.1574946564        2.7236339515
N             8.1641508614        8.1641508614        6.3534016607
N             8.1759151521        8.1759151521        9.9798340434
N             0.9013673735        2.7118064310        0.9013673735
N             0.9060005838        2.7174304698        4.5296933265
N             0.9062315396        2.7194549633        8.1575773268
N             0.9067955987        6.3453436913        0.9067955987
N             0.9075109534        6.3446050620        4.5327332825
N             0.9090288488        6.3449304321        8.1590195005
N             0.8847390372        9.9583092566        0.8847390372
N             0.9062834924        9.9711940820        4.5319208743
N             0.9166883530        9.9711665466        8.1518599488
N             4.5296933265        2.7174304698        0.9060005838
N             4.5316855341        2.7192643682        4.5316855341
N             4.5321754878        2.7202219938        8.1583527614
N             4.5327332825        6.3446050620        0.9075109534
N             4.5334684234        6.3456044834        4.5334684234
N             4.5360396786        6.3467648339        8.1594405615
N             4.5319208743        9.9711940820        0.9062834924
N             4.5319453840        9.9715705175        4.5319453840
N             4.5345507786        9.9722192700        8.1592779622
N             8.1575773268        2.7194549633        0.9062315396
N             8.1583527614        2.7202219938        4.5321754878
N             8.1574946564        2.7236339515        8.1574946564
N             8.1590195005        6.3449304321        0.9090288488
N             8.1594405615        6.3467648339        4.5360396786
N             8.1641508614        6.3534016607        8.1641508614
N             8.1518599488        9.9711665466        0.9166883530
N             8.1592779622        9.9722192700        4.5345507786
N             8.1759151521        9.9798340434        8.1759151521
N             2.7118064310        0.9013673735        0.9013673735
N             2.7174304698        0.9060005838        4.5296933265
N             2.7194549633        0.9062315396        8.1575773268
N             2.7174304698        4.5296933265        0.9060005838
N             2.7192643682        4.5316855341        4.5316855341
N             2.7202219938        4.5321754878        8.1583527614
N             2.7194549633        8.1575773268        0.9062315396
N             2.7202219938        8.1583527614        4.5321754878
N             2.7236339515        8.1574946564        8.1574946564
N             6.3453436913        0.9067955987        0.9067955987
N             6.3446050620        0.9075109534        4.5327332825
N             6.3449304321        0.9090288488        8.1590195005
N             6.3446050620        4.5327332825        0.9075109534
N             6.3456044834        4.5334684234        4.5334684234
N             6.3467648339        4.5360396786        8.1594405615
N             6.3449304321        8.1590195005        0.9090288488
N             6.3467648339        8.1594405615        4.5360396786
N             6.3534016607        8.1641508614        8.1641508614
N             9.9583092566        0.8847390372        0.8847390372
N             9.9711940820        0.9062834924        4.5319208743
N             9.9711665466        0.9166883530        8.1518599488
N             9.9711940820        4.5319208743        0.9062834924
N             9.9715705175        4.5319453840        4.5319453840
N             9.9722192700        4.5345507786        8.1592779622
N             9.9711665466        8.1518599488        0.9166883530
N             9.9722192700        8.1592779622        4.5345507786
N             9.9798340434        8.1759151521        8.1759151521
N             2.7167521295        2.7167521295        2.7167521295
N             2.7193218914        2.7193218914        6.3441386904
N             2.7138862391        2.7138862391        9.9695761566
N             2.7193218914        6.3441386904        2.7193218914
N             2.7211570394        6.3453918870        6.3453918870
N             2.7244197550        6.3413872721        9.9716052633
N             2.7138862391        9.9695761566        2.7138862391
N             2.7244197550        9.9716052633        6.3413872721
N             2.7187294932        9.9695531203        9.9695531203
N             6.3441386904        2.7193218914        2.7193218914
N             6.3453918870        2.7211570394        6.3453918870
N             6.3413872721        2.7244197550        9.9716052633
N             6.3453918870        6.3453918870        2.7211570394
N             6.3481806325        6.3481806325        6.3481806325
N             6.3486458356        6.3486458356        9.9731514410
N             6.3413872721        9.9716052633        2.7244197550
N             6.3486458356        9.9731514410        6.3486458356
N             6.3481748909        9.9737692984        9.9737692984
N             9.9695761566        2.7138862391        2.7138862391
N             9.9716052633        2.7244197550        6.3413872721
N             9.9695531203        2.7187294932        9.9695531203
N             9.9716052633        6.3413872721        2.7244197550
N             9.9731514410        6.3486458356        6.3486458356
N             9.9737692984        6.3481748909        9.9737692984
N             9.9695531203        9.9695531203        2.7187294932
N             9.9737692984        9.9737692984        6.3481748909
K_POINTS gamma
CELL_PARAMETERS angstrom
     10.8780060000       0.0000000000       0.0000000000
      0.0000000000      10.8780060000       0.0000000000
      0.0000000000       0.0000000000      10.8780060000
