&CONTROL
  calculation = 'scf'
  etot_conv_thr =   2.1600000000d-03
  forc_conv_thr =   1.0000000000d-04
  outdir = './out/'
  prefix = 'aiida'
  pseudo_dir = './pseudo/'
  tprnfor = .true.
  !tstress = .true.
  verbosity = 'high'
  disk_io   = 'high'
  max_seconds = 14400
/
&SYSTEM
  degauss =   1.4699723600d-02
  ecutwfc =   10.0000000000d+01
  ibrav = 0
  nat = 214
  nosym = .false.
  ntyp = 2
  occupations = 'smearing'
  smearing = 'mv'
  tot_charge = -1
  nspin = 2
  starting_magnetization(1) =  0.5
  starting_magnetization(2) = -0.5
  input_dft = 'pbe0'
  exx_fraction = 0.23
  ecutfock = 120
  ace = .true.
  localization_thr = 0.001
/
&ELECTRONS
  conv_thr =   4.3200000000d-08
  electron_maxstep = 80
  mixing_beta =   4.0000000000d-01
  adaptive_thr = .True.
  conv_thr_init = 1.D-3 
  conv_thr_multi = 1.D-2
/
&IONS
/
ATOMIC_SPECIES
B      10.811 B_ONCV_PBE-1.2.upf
N      14.0067 N_ONCV_PBE-1.2.upf
ATOMIC_POSITIONS (angstrom)
B             0.0037971637        0.0037971637        0.0114256287
B            -0.0016122038       -0.0016122038        7.2409693662
B             0.0012299324        3.6275115968       -0.0015084295
B             0.0037972212        3.6145775284        3.6222059934
B            -0.0037816106        3.6238225152        7.2494946054
B            -0.0037815531        7.2545110702        0.0021806419
B            -0.0016122613        7.2630363094        3.6276153609
B             0.0039777104        7.2510195793        7.2529861065
B             3.6275115968        0.0012299324       -0.0015084295
B             3.6145775284        0.0037972212        3.6222059934
B             3.6238225152       -0.0037816106        7.2494946054
B             3.6274035586        3.6274035586       -0.0014003440
B             3.6275116278        3.6275116278        3.6247732659
B             3.6231133238        3.6231133238        7.2480972296
B             3.6231132727        7.2559084051        0.0028898269
B             3.6238225663        7.2545110293        3.6297847613
B             3.6266934636        7.2518381019        7.2521675015
B             7.2545110702       -0.0037815531        0.0021806419
B             7.2630363094       -0.0016122613        3.6276153609
B             7.2510195793        0.0039777104        7.2529861065
B             7.2559084051        3.6231132727        0.0028898269
B             7.2545110293        3.6238225663        3.6297847613
B             7.2518381019        3.6266934636        7.2521675015
B             7.2518381431        7.2518381431       -0.0006902078
B             7.2510195381        7.2510195381        3.6220255454
B             7.2549172380        7.2549172380        7.2490883456
B             0.0326455412        1.8248638165        1.8011358125
B            -0.0196199328        1.7794878448        5.4115722651
B             0.0007614585        1.8109585152        9.0624334671
B             0.0007615267        5.4415757184        1.8150411056
B             0.0007197812        5.4376507522        5.4353459716
B            -0.0002998506        5.4384181220        9.0655910717
B            -0.0196200010        9.0924369204        1.8465117760
B             0.0139838763        9.0859514498        5.4180577439
B             0.0007198494        9.0686632139        9.0663584333
B             3.6309944650        1.8168251377        1.8091744577
B             3.6141315834        1.8101446325        5.4276805105
B             3.6242791122        1.8120257254        9.0618274585
B             3.6242790620        5.4421818261        1.8139738286
B             3.6254503112        5.4379174890        5.4384404188
B             3.6255517656        5.4393960257        9.0646131357
B             3.6141316336        9.0763287741        1.8158549215
B             3.6225443607        9.0643678258        5.4396413356
B             3.6254503737        9.0655687835        9.0660917133
B             7.2625461642        1.8038973712        1.8221021606
B             7.2546334735        1.8142643902        5.4409770600
B             7.2544496007        1.8132211674        9.0680581584
B             7.2544496627        5.4359509934        1.8127784184
B             7.2533881672        5.4401193891        5.4381246279
B             7.2528537975        5.4393520686        9.0646571938
B             7.2546334115        9.0630320918        1.8117351956
B             7.2590339711        9.0715520903        5.4324571721
B             7.2533881165        9.0658846062        9.0638898450
B             1.8248638165        0.0326455412        1.8011358125
B             1.7794878448       -0.0196199328        5.4115722651
B             1.8109585152        0.0007614585        9.0624334671
B             1.8168251377        3.6309944650        1.8091744577
B             1.8101446325        3.6141315834        5.4276805105
B             1.8120257254        3.6242791122        9.0618274585
B             1.8038973712        7.2625461642        1.8221021606
B             1.8142643902        7.2546334735        5.4409770600
B             1.8132211674        7.2544496007        9.0680581584
B             5.4415757184        0.0007615267        1.8150411056
B             5.4376507522        0.0007197812        5.4353459716
B             5.4384181220       -0.0002998506        9.0655910717
B             5.4421818261        3.6242790620        1.8139738286
B             5.4379174890        3.6254503112        5.4384404188
B             5.4393960257        3.6255517656        9.0646131357
B             5.4359509934        7.2544496627        1.8127784184
B             5.4401193891        7.2533881672        5.4381246279
B             5.4393520686        7.2528537975        9.0646571938
B             9.0924369204       -0.0196200010        1.8465117760
B             9.0859514498        0.0139838763        5.4180577439
B             9.0686632139        0.0007198494        9.0663584333
B             9.0763287741        3.6141316336        1.8158549215
B             9.0643678258        3.6225443607        5.4396413356
B             9.0655687835        3.6254503737        9.0660917133
B             9.0630320918        7.2546334115        1.8117351956
B             9.0715520903        7.2590339711        5.4324571721
B             9.0658846062        7.2533881165        9.0638898450
B             1.8168251545        1.8168251545       -0.0049911705
B             1.8248637997        1.8248637997        3.5933577533
B             1.8038973712        1.8038973712        7.2414594068
B             1.8120257658        5.4421817756        0.0017241023
B             1.8109584888        5.4415757689        3.6252416376
B             1.8132211578        5.4359509934        7.2495560087
B             1.8101446589        9.0763287255        0.0118715127
B             1.7794878044        9.0924369690        3.6456231473
B             1.8142643998        9.0630320918        7.2493721359
B             5.4421817756        1.8120257658        0.0017241023
B             5.4415757689        1.8109584888        3.6252416376
B             5.4359509934        1.8132211578        7.2495560087
B             5.4393960762        5.4393960762        0.0004513987
B             5.4384181220        5.4384181220        3.6263030144
B             5.4393520181        5.4393520181        7.2511518744
B             5.4379174890        9.0655687749        0.0005528526
B             5.4376507017        9.0686632403        3.6252833831
B             5.4401194396        9.0658845840        7.2506175047
B             9.0763287255        1.8101446589        0.0118715127
B             9.0924369690        1.7794878044        3.6456231473
B             9.0630320918        1.8142643998        7.2493721359
B             9.0655687749        5.4379174890        0.0005528526
B             9.0686632403        5.4376507017        3.6252833831
B             9.0658845840        5.4401194396        7.2506175047
B             9.0643677994        9.0643677994        0.0034588718
B             9.0859514584        9.0859514584        3.6120193500
B             9.0715521125        9.0715521125        7.2449716501
N             0.9022962087        0.9022962087        6.3409740540
N             0.9095606931        0.9095606931        9.9708810419
N             0.9095606080        4.5331247384        2.7164424103
N             0.9066652093        4.5266110120        6.3395892154
N             0.9082624317        4.5322192366        9.9717863514
N             0.9022960983        8.1630351808        2.7237069685
N             0.9111114666        8.1422502942        6.3617588221
N             0.9066650188        8.1644201712        9.9773945252
N             4.5331247384        0.9095606080        2.7164424103
N             4.5266110120        0.9066652093        6.3395892154
N             4.5322192366        0.9082624317        9.9717863514
N             4.5322193915        4.5322193915        2.7177410362
N             4.5311564616        4.5311564616        6.3449492884
N             4.5331554471        4.5331554471        9.9708498996
N             4.5266110330        8.1644199764        2.7193382522
N             4.5355017327        8.1564437398        6.3475650494
N             4.5311566632        8.1590600295        9.9728492022
N             8.1630351808        0.9022960983        2.7237069685
N             8.1422502942        0.9111114666        6.3617588221
N             8.1644201712        0.9066650188        9.9773945252
N             8.1644199764        4.5266110330        2.7193382522
N             8.1564437398        4.5355017327        6.3475650494
N             8.1590600295        4.5311566632        9.9728492022
N             8.1422502095        8.1422502095        2.7148916364
N             8.1598349597        8.1598349597        6.3441742111
N             8.1564440305        8.1564440305        9.9685041206
N             0.9171369835        2.7205880109        0.9054150653
N             0.9040321074        2.6964140630        4.5011491656
N             0.9066490321        2.7189387984        8.1571362285
N             0.9066491425        6.3468730063        0.9070643788
N             0.9080057627        6.3444151684        4.5327257843
N             0.9077721030        6.3407531568        8.1632559595
N             0.9040321925       10.0028566147        0.9295890404
N             0.9712923400        9.8980363890        4.6059691990
N             0.9080055722        9.9712797529        8.1595942182
N             4.5350449660        2.7216374902        0.9043655281
N             4.5292051382        2.7185364032        4.5292641835
N             4.5305510787        2.7193989331        8.1574358804
N             4.5305510577        6.3465733114        0.9066045284
N             4.5341484801        6.3422469153        4.5323908266
N             4.5330799423        6.3443892239        8.1596195653
N             4.5292049833        9.9747415594        0.9074670647
N             4.5283447632        9.9741518566        4.5298534901
N             4.5341486817        9.9716148372        8.1617624026
N             8.1660501932        2.7150404994        0.9109625674
N             8.1478309677        2.7325916990        4.5345078267
N             8.1566787865        2.7222553078        8.1634974672
N             8.1566788712        6.3405115644        0.9037477952
N             8.1584935664        6.3431625544        4.5315406818
N             8.1584472234        6.3455512608        8.1584579100
N             8.1478311625        9.9694977315        0.8934115720
N             8.1578874340        9.9729297667        4.5310760987
N             8.1584938571        9.9724651715        8.1608465255
N             2.7205880109        0.9171369835        0.9054150653
N             2.6964140630        0.9040321074        4.5011491656
N             2.7189387984        0.9066490321        8.1571362285
N             2.7216374902        4.5350449660        0.9043655281
N             2.7185364032        4.5292051382        4.5292641835
N             2.7193989331        4.5305510787        8.1574358804
N             2.7150404994        8.1660501932        0.9109625674
N             2.7325916990        8.1478309677        4.5345078267
N             2.7222553078        8.1566787865        8.1634974672
N             6.3468730063        0.9066491425        0.9070643788
N             6.3444151684        0.9080057627        4.5327257843
N             6.3407531568        0.9077721030        8.1632559595
N             6.3465733114        4.5305510577        0.9066045284
N             6.3422469153        4.5341484801        4.5323908266
N             6.3443892239        4.5330799423        8.1596195653
N             6.3405115644        8.1566788712        0.9037477952
N             6.3431625544        8.1584935664        4.5315406818
N             6.3455512608        8.1584472234        8.1584579100
N            10.0028566147        0.9040321925        0.9295890404
N             9.8980363890        0.9712923400        4.6059691990
N             9.9712797529        0.9080055722        8.1595942182
N             9.9747415594        4.5292049833        0.9074670647
N             9.9741518566        4.5283447632        4.5298534901
N             9.9716148372        4.5341486817        8.1617624026
N             9.9694977315        8.1478311625        0.8934115720
N             9.9729297667        8.1578874340        4.5310760987
N             9.9724651715        8.1584938571        8.1608465255
N             2.7205881653        2.7205881653        2.7088662471
N             2.7150406000        2.7150406000        6.3379590782
N             2.7216375147        2.7216375147        9.9689608754
N             2.7189388990        6.3468730429        2.7193541353
N             2.7222555383        6.3405115525        6.3473302332
N             2.7193988080        6.3465731108        9.9734546071
N             2.6964140875       10.0028566758        2.7219709354
N             2.7325915739        9.9694978591        6.3561780235
N             2.7185360183        9.9747415662        9.9748006115
N             6.3468730429        2.7189388990        2.7193541353
N             6.3405115525        2.7222555383        6.3473302332
N             6.3465731108        2.7193988080        9.9734546071
N             6.3407531449        6.3407531449        2.7182312305
N             6.3455512828        6.3455512828        6.3455619694
N             6.3443894364        6.3443894364        9.9709256169
N             6.3444149678        9.9712798805        2.7179975737
N             6.3431627669        9.9724648774        6.3455154353
N             6.3422468567        9.9716147028        9.9698570493
N            10.0028566758        2.6964140875        2.7219709354
N             9.9694978591        2.7325915739        6.3561780235
N             9.9747415662        2.7185360183        9.9748006115
N             9.9712798805        6.3444149678        2.7179975737
N             9.9724648774        6.3431627669        6.3455154353
N             9.9716147028        6.3422468567        9.9698570493
N             9.8980363958        9.8980363958        2.6547107430
N             9.9729296323        9.9729296323        6.3461218253
N             9.9741520896        9.9741520896        9.9756608165
K_POINTS gamma
CELL_PARAMETERS angstrom
     10.8780060000       0.0000000000       0.0000000000
      0.0000000000      10.8780060000       0.0000000000
      0.0000000000       0.0000000000      10.8780060000
