&CONTROL
  calculation = 'scf'
  etot_conv_thr =   2.1600000000d-03
  forc_conv_thr =   1.0000000000d-04
  outdir = './out/'
  prefix = 'aiida'
  pseudo_dir = './pseudo/'
  tprnfor = .true.
  !tstress = .true.
  verbosity = 'high'
  disk_io   = 'high'
  max_seconds = 14400
/
&SYSTEM
  degauss =   1.4699723600d-02
  ecutwfc =   10.0000000000d+01
  ibrav = 0
  nat = 217
  nosym = .false.
  ntyp = 2
  occupations = 'smearing'
  smearing = 'mv'
  tot_charge = -1
  nspin = 2
  starting_magnetization(1) =  0.5
  starting_magnetization(2) = -0.5
  input_dft = 'pbe0'
  exx_fraction = 0.23
  ecutfock = 120
  ace = .true.
  localization_thr = 0.001
/
&ELECTRONS
  conv_thr =   4.3200000000d-08
  electron_maxstep = 80
  mixing_beta =   4.0000000000d-01
  adaptive_thr = .True.
  conv_thr_init = 1.D-3 
  conv_thr_multi = 1.D-2
/
&IONS
/
ATOMIC_SPECIES
B      10.811 B_ONCV_PBE-1.2.upf
N      14.0067 N_ONCV_PBE-1.2.upf
ATOMIC_POSITIONS (angstrom)
B            -0.1088589303        0.2373846601       -0.1088589303
B             0.0169582957        0.0160519761        3.6204797668
B            -0.0017886290        0.0065972885        7.2530908098
B            -0.0058395744        3.6385334486       -0.0058395744
B            -0.0041080059        3.6425887761        3.6394190801
B            -0.0014055371        3.6402069001        7.2386718874
B            -0.0181750331        7.2133224356       -0.0181750331
B             0.0001171626        7.2058676820        3.6688452751
B            -0.0025062959        7.2523851773        7.2475104247
B             3.6204797668        0.0160519761        0.0169582957
B             3.6279220442        0.0014559571        3.6279220442
B             3.6239810771        0.0050455824        7.2552657539
B             3.6394190801        3.6425887761       -0.0041080059
B             3.6346914345        3.6382889199        3.6346914345
B             3.6300291465        3.6290967866        7.2498547446
B             3.6688452751        7.2058676820        0.0001171626
B             3.6300404982        7.2535680183        3.6300404982
B             3.6301181066        7.2578280785        7.2504430555
B             7.2530908098        0.0065972885       -0.0017886290
B             7.2552657539        0.0050455824        3.6239810771
B             7.2502331728        0.0026662697        7.2502331728
B             7.2386718874        3.6402069001       -0.0014055371
B             7.2498547446        3.6290967866        3.6300291465
B             7.2499831894        3.6298710845        7.2499831894
B             7.2475104247        7.2523851773       -0.0025062959
B             7.2504430555        7.2578280785        3.6301181066
B             7.2502890220        7.2586899117        7.2502890220
B            -0.0144394870        1.8572124225        1.8274300087
B            -0.0007211744        1.8234331412        5.4425335074
B            -0.0011803234        1.8645071661        9.0221205374
B            -0.0049985988        5.4364175533        1.8179284608
B            -0.0008845901        5.4351392950        5.4508830655
B            -0.0058795540        5.4315978036        9.0506792647
B            -0.0276123443        8.8455556093        1.8411045573
B             0.0003886454        9.0691878235        5.4358808871
B             0.0097009481        9.0614076142        9.0750602751
B             3.6686153999        1.8644412134        1.8142839691
B             3.6304943696        1.8166628885        5.4431986796
B             3.6276935190        1.8211677321        9.0632794211
B             3.6402307316        5.4315957761        1.8189554174
B             3.6309554918        5.4454884825        5.4425375796
B             3.6335061377        5.4361396281        9.0574055240
B             3.6157621896        9.0613168072        1.8032877944
B             3.6267167624        9.0692088327        5.4387046753
B             3.6139517269        9.0683246592        9.0772274259
B             7.2481185002        1.8234202654        1.8137417406
B             7.2514805886        1.8153119241        5.4394625204
B             7.2476011928        1.8166994249        9.0605328948
B             7.2397423807        5.4352387096        1.8137920468
B             7.2505423710        5.4441947048        5.4404104828
B             7.2483715710        5.4454462127        9.0600574689
B             7.2551111888        9.0692509146        1.8126252203
B             7.2541345193        9.0698738353        5.4368471203
B             7.2522702579        9.0691376853        9.0642624116
B             1.9209773785        0.2376338522        1.9209773785
B             1.8148603061        0.0064904388        5.4378088951
B             1.7963214928        0.0160369303        9.0707824877
B             1.8189061316        3.6386929005        1.8189061316
B             1.8143690723        3.6401171598        5.4518599269
B             1.8170758099        3.6426370276        9.0512093748
B             1.8313046597        7.2129700689        1.8313046597
B             1.8153669269        7.2523767200        5.4431585626
B             1.8128935791        7.2060469186        9.0220301891
B             5.4378088951        0.0064904388        1.8148603061
B             5.4406475986        0.0026881409        5.4406475986
B             5.4357757381        0.0049888323        9.0670032281
B             5.4518599269        3.6401171598        1.8143690723
B             5.4409658090        3.6298436425        5.4409658090
B             5.4409010873        3.6290471668        9.0609496498
B             5.4431585626        7.2523767200        1.8153669269
B             5.4407273181        7.2586906494        5.4407273181
B             5.4404910421        7.2577187510        9.0608496755
B             9.0707824877        0.0160369303        1.7963214928
B             9.0670032281        0.0049888323        5.4357757381
B             9.0628487125        0.0014689045        9.0628487125
B             9.0512093748        3.6426370276        1.8170758099
B             9.0609496498        3.6290471668        5.4409010873
B             9.0563586962        3.6382130003        9.0563586962
B             9.0220301891        7.2060469186        1.8128935791
B             9.0608496755        7.2577187510        5.4404910421
B             9.0611551757        7.2534382369        9.0611551757
B             1.8274300087        1.8572124225       -0.0144394870
B             1.8142839691        1.8644412134        3.6686153999
B             1.8137417406        1.8234202654        7.2481185002
B             1.8179284608        5.4364175533       -0.0049985988
B             1.8189554174        5.4315957761        3.6402307316
B             1.8137920468        5.4352387096        7.2397423807
B             1.8411045573        8.8455556093       -0.0276123443
B             1.8032877944        9.0613168072        3.6157621896
B             1.8126252203        9.0692509146        7.2551111888
B             5.4425335074        1.8234331412       -0.0007211744
B             5.4431986796        1.8166628885        3.6304943696
B             5.4394625204        1.8153119241        7.2514805886
B             5.4508830655        5.4351392950       -0.0008845901
B             5.4425375796        5.4454884825        3.6309554918
B             5.4404104828        5.4441947048        7.2505423710
B             5.4358808871        9.0691878235        0.0003886454
B             5.4387046753        9.0692088327        3.6267167624
B             5.4368471203        9.0698738353        7.2541345193
B             9.0221205374        1.8645071661       -0.0011803234
B             9.0632794211        1.8211677321        3.6276935190
B             9.0605328948        1.8166994249        7.2476011928
B             9.0506792647        5.4315978036       -0.0058795540
B             9.0574055240        5.4361396281        3.6335061377
B             9.0600574689        5.4454462127        7.2483715710
B             9.0750602751        9.0614076142        0.0097009481
B             9.0772274259        9.0683246592        3.6139517269
B             9.0642624116        9.0691376853        7.2522702579
N             0.9099079577        1.0155237558        2.8050904758
N             0.9065845474        0.9135940473        6.3453131444
N             0.9031362984        1.0155374750        9.8857324455
N             0.9070538359        4.5371704890        2.7280709329
N             0.9065396891        4.5378089717        6.3451990939
N             0.9061196634        4.5369767044        9.9626631670
N             0.9014367098        8.0529941447        2.8051494839
N             0.9065704747        8.1620105581        6.3453535890
N             0.9119259533        8.0535643811        9.8856695785
N             4.5447807148        0.9200979792        2.7248874952
N             4.5354661800        0.9098588418        6.3482932639
N             4.5329143636        0.9137214386        9.9696813308
N             4.5450505721        4.5372439884        2.7279309187
N             4.5368437071        4.5371682292        6.3459876942
N             4.5435647737        4.5371319057        9.9640059183
N             4.5356012837        8.1602836454        2.7233987441
N             4.5352960542        8.1638932688        6.3458820286
N             4.5392958067        8.1551958720        9.9687659563
N             8.1582214458        0.9137586863        2.7212109902
N             8.1556588120        0.9098507542        6.3424838192
N             8.1460463169        0.9201856751        9.9660566706
N             8.1472620257        4.5374615723        2.7267889343
N             8.1542799802        4.5371983583        6.3447689217
N             8.1459296254        4.5372431315        9.9629956737
N             8.1519355189        8.1554279470        2.7220050611
N             8.1558269352        8.1638727829        6.3449617066
N             8.1555193113        8.1601978036        9.9674551863
N             0.9067709464        2.7410886500        0.9067709464
N             0.9075931415        2.7556183176        4.5625904661
N             0.9056990529        2.7558128308        8.1277020726
N             0.9065227864        6.3297415528        0.9065227864
N             0.9064033631        6.3197821436        4.5628548208
N             0.9066148863        6.3199308830        8.1278285397
N             0.9075516657        9.2580315053        0.9075516657
N             0.9078821009        9.9767608820        4.5304865217
N             0.9055515659        9.9768723444        8.1608690306
N             4.5625904661        2.7556183176        0.9075931415
N             4.5383661636        2.7246013437        4.5383661636
N             4.5362791166        2.7237616288        8.1548768149
N             4.5628548208        6.3197821436        0.9064033631
N             4.5380616004        6.3503490226        4.5380616004
N             4.5372025366        6.3495191079        8.1539883650
N             4.5304865217        9.9767608820        0.9078821009
N             4.5387892416        9.9767875640        4.5387892416
N             4.5270473537        9.9750002606        8.1642219369
N             8.1277020726        2.7558128308        0.9056990529
N             8.1548768149        2.7237616288        4.5362791166
N             8.1529084856        2.7244257884        8.1529084856
N             8.1278285397        6.3199308830        0.9066148863
N             8.1539883650        6.3495191079        4.5372025366
N             8.1532836393        6.3501332288        8.1532836393
N             8.1608690306        9.9768723444        0.9055515659
N             8.1642219369        9.9750002606        4.5270473537
N             8.1523352310        9.9766175476        8.1523352310
N             2.8050904758        1.0155237558        0.9099079577
N             2.7248874952        0.9200979792        4.5447807148
N             2.7212109902        0.9137586863        8.1582214458
N             2.7280709329        4.5371704890        0.9070538359
N             2.7279309187        4.5372439884        4.5450505721
N             2.7267889343        4.5374615723        8.1472620257
N             2.8051494839        8.0529941447        0.9014367098
N             2.7233987441        8.1602836454        4.5356012837
N             2.7220050611        8.1554279470        8.1519355189
N             6.3453131444        0.9135940473        0.9065845474
N             6.3482932639        0.9098588418        4.5354661800
N             6.3424838192        0.9098507542        8.1556588120
N             6.3451990939        4.5378089717        0.9065396891
N             6.3459876942        4.5371682292        4.5368437071
N             6.3447689217        4.5371983583        8.1542799802
N             6.3453535890        8.1620105581        0.9065704747
N             6.3458820286        8.1638932688        4.5352960542
N             6.3449617066        8.1638727829        8.1558269352
N             9.8857324455        1.0155374750        0.9031362984
N             9.9696813308        0.9137214386        4.5329143636
N             9.9660566706        0.9201856751        8.1460463169
N             9.9626631670        4.5369767044        0.9061196634
N             9.9640059183        4.5371319057        4.5435647737
N             9.9629956737        4.5372431315        8.1459296254
N             9.8856695785        8.0535643811        0.9119259533
N             9.9687659563        8.1551958720        4.5392958067
N             9.9674551863        8.1601978036        8.1555193113
N             2.7339018531        2.7523865545        2.7339018531
N             2.7252277098        2.7253311029        6.3472347825
N             2.7314680084        2.7498176597        9.9591517707
N             2.7343577163        6.3225740573        2.7343577163
N             2.7252016077        6.3494181744        6.3451949711
N             2.7338456115        6.3221204282        9.9570155418
N             2.7246574410        9.9898182833        2.7246574410
N             2.7196262308        9.9759533330        6.3466093983
N             2.6896581436        9.9687667018       10.0019091193
N             6.3472347825        2.7253311029        2.7252277098
N             6.3453529978        2.7227261542        6.3453529978
N             6.3431333245        2.7254854358        9.9654813564
N             6.3451949711        6.3494181744        2.7252016077
N             6.3453492029        6.3508801277        6.3453492029
N             6.3452890896        6.3494145401        9.9654860481
N             6.3466093983        9.9759533330        2.7196262308
N             6.3453103418        9.9759037351        6.3453103418
N             6.3441175083        9.9759315188        9.9711216755
N             9.9591517707        2.7498176597        2.7314680084
N             9.9654813564        2.7254854358        6.3431333245
N             9.9570221781        2.7520637150        9.9570221781
N             9.9570155418        6.3221204282        2.7338456115
N             9.9654860481        6.3494145401        6.3452890896
N             9.9567975387        6.3225758015        9.9567975387
N            10.0019091193        9.9687667018        2.6896581436
N             9.9711216755        9.9759315188        6.3441175083
N             9.9655144633        9.9897736542        9.9655144633
B             0.9059402996       -0.2928564255        0.9059402996
K_POINTS gamma
CELL_PARAMETERS angstrom
     10.8780060000       0.0000000000       0.0000000000
      0.0000000000      10.8780060000       0.0000000000
      0.0000000000       0.0000000000      10.8780060000
