&CONTROL
  calculation = 'scf'
  etot_conv_thr =   2.1600000000d-03
  forc_conv_thr =   1.0000000000d-04
  outdir = './out/'
  prefix = 'aiida'
  pseudo_dir = './pseudo/'
  tprnfor = .true.
  !tstress = .true.
  verbosity = 'high'
  disk_io   = 'high'
  max_seconds = 14400
  wf_collect=.TRUE.
/
&SYSTEM
  degauss =   1.4699723600d-02
  ecutwfc =   10.0000000000d+01
  ibrav = 0
  nat = 216
  nosym = .false.
  ntyp = 2
  occupations = 'smearing'
  smearing = 'mv'
  tot_charge = 1
  nspin = 2
  starting_magnetization(1) =  0.5
  starting_magnetization(2) = -0.5
  input_dft = 'pbe0'
  exx_fraction = 0.23
  ecutfock = 120
  ace = .true.
  localization_thr = 0.001
/
&ELECTRONS
  conv_thr =   4.3200000000d-08
  electron_maxstep = 80
  mixing_beta =   4.0000000000d-01
  adaptive_thr = .True.
  conv_thr_init = 1.D-3 
  conv_thr_multi = 1.D-2
/
&IONS
/
ATOMIC_SPECIES
B      10.811 B_ONCV_PBE-1.2.upf
N      14.0067 N_ONCV_PBE-1.2.upf
ATOMIC_POSITIONS (angstrom)
B             0.0839480383        0.0839480383        0.0839480383
B             0.0012767348        0.0012767348        3.6298843192
B            -0.0002901632       -0.0002901632        7.2410385407
B             0.0012767348        3.6298843192        0.0012767348
B             0.0025946824        3.6294816578        3.6294816578
B             0.0006248194        3.6281535473        7.2503095084
B            -0.0002901632        7.2410385407       -0.0002901632
B             0.0006248194        7.2503095084        3.6281535473
B             0.0101617187        7.2332395200        7.2332395200
B             3.6298843192        0.0012767348        0.0012767348
B             3.6294816578        0.0025946824        3.6294816578
B             3.6281535473        0.0006248194        7.2503095084
B             3.6294816578        3.6294816578        0.0025946824
B             3.6274422256        3.6274422256        3.6274422256
B             3.6259632531        3.6259632531        7.2503683786
B             3.6281535473        7.2503095084        0.0006248194
B             3.6259632531        7.2503683786        3.6259632531
B             3.6313883067        7.2475488415        7.2475488415
B             7.2410385407       -0.0002901632       -0.0002901632
B             7.2503095084        0.0006248194        3.6281535473
B             7.2332395200        0.0101617187        7.2332395200
B             7.2503095084        3.6281535473        0.0006248194
B             7.2503683786        3.6259632531        3.6259632531
B             7.2475488415        3.6313883067        7.2475488415
B             7.2332395200        7.2332395200        0.0101617187
B             7.2475488415        7.2475488415        3.6313883067
B             7.2515281610        7.2515281610        7.2515281610
B             0.0101965593        1.8317965697        1.8317965697
B             0.0006212012        1.8147172146        5.4368772258
B            -0.0002966472        1.8237625770        9.0652686324
B             0.0006212012        5.4368772258        1.8147172146
B             0.0025893525        5.4356126084        5.4356126084
B             0.0012548329        5.4352018236        9.0637292293
B            -0.0002966472        9.0652686324        1.8237625770
B             0.0012548329        9.0637292293        5.4352018236
B             0.0838214387        8.9811114953        8.9811114953
B             3.6313500009        1.8174551787        1.8174551787
B             3.6259689256        1.8146682730        5.4390608861
B             3.6281129061        1.8146742853        9.0643853385
B             3.6259689256        5.4390608861        1.8146682730
B             3.6274414806        5.4375786414        5.4375786414
B             3.6294371570        5.4355915876        9.0624440146
B             3.6281129061        9.0643853385        1.8146742853
B             3.6294371570        9.0624440146        5.4355915876
B             3.6297880354        9.0637590357        9.0637590357
B             7.2515581263        1.8134507230        1.8134507230
B             7.2475583040        1.8174496420        5.4336861536
B             7.2331914575        1.8317885634        9.0548161341
B             7.2475583040        5.4336861536        1.8174496420
B             7.2503480364        5.4390480292        5.4390480292
B             7.2503272092        5.4368966955        9.0643976439
B             7.2331914575        9.0548161341        1.8317885634
B             7.2503272092        9.0643976439        5.4368966955
B             7.2411594480        9.0652290030        9.0652290030
B             1.8317965697        0.0101965593        1.8317965697
B             1.8147172146        0.0006212012        5.4368772258
B             1.8237625770       -0.0002966472        9.0652686324
B             1.8174551787        3.6313500009        1.8174551787
B             1.8146682730        3.6259689256        5.4390608861
B             1.8146742853        3.6281129061        9.0643853385
B             1.8134507230        7.2515581263        1.8134507230
B             1.8174496420        7.2475583040        5.4336861536
B             1.8317885634        7.2331914575        9.0548161341
B             5.4368772258        0.0006212012        1.8147172146
B             5.4356126084        0.0025893525        5.4356126084
B             5.4352018236        0.0012548329        9.0637292293
B             5.4390608861        3.6259689256        1.8146682730
B             5.4375786414        3.6274414806        5.4375786414
B             5.4355915876        3.6294371570        9.0624440146
B             5.4336861536        7.2475583040        1.8174496420
B             5.4390480292        7.2503480364        5.4390480292
B             5.4368966955        7.2503272092        9.0643976439
B             9.0652686324       -0.0002966472        1.8237625770
B             9.0637292293        0.0012548329        5.4352018236
B             8.9811114953        0.0838214387        8.9811114953
B             9.0643853385        3.6281129061        1.8146742853
B             9.0624440146        3.6294371570        5.4355915876
B             9.0637590357        3.6297880354        9.0637590357
B             9.0548161341        7.2331914575        1.8317885634
B             9.0643976439        7.2503272092        5.4368966955
B             9.0652290030        7.2411594480        9.0652290030
B             1.8317965697        1.8317965697        0.0101965593
B             1.8174551787        1.8174551787        3.6313500009
B             1.8134507230        1.8134507230        7.2515581263
B             1.8147172146        5.4368772258        0.0006212012
B             1.8146682730        5.4390608861        3.6259689256
B             1.8174496420        5.4336861536        7.2475583040
B             1.8237625770        9.0652686324       -0.0002966472
B             1.8146742853        9.0643853385        3.6281129061
B             1.8317885634        9.0548161341        7.2331914575
B             5.4368772258        1.8147172146        0.0006212012
B             5.4390608861        1.8146682730        3.6259689256
B             5.4336861536        1.8174496420        7.2475583040
B             5.4356126084        5.4356126084        0.0025893525
B             5.4375786414        5.4375786414        3.6274414806
B             5.4390480292        5.4390480292        7.2503480364
B             5.4352018236        9.0637292293        0.0012548329
B             5.4355915876        9.0624440146        3.6294371570
B             5.4368966955        9.0643976439        7.2503272092
B             9.0652686324        1.8237625770       -0.0002966472
B             9.0643853385        1.8146742853        3.6281129061
B             9.0548161341        1.8317885634        7.2331914575
B             9.0637292293        5.4352018236        0.0012548329
B             9.0624440146        5.4355915876        3.6294371570
B             9.0643976439        5.4368966955        7.2503272092
B             8.9811114953        8.9811114953        0.0838214387
B             9.0637590357        9.0637590357        3.6297880354
B             9.0652290030        9.0652290030        7.2411594480
N             0.9099007786        0.9099007786        2.7237982162
N             0.9065882793        0.9065882793        6.3443862629
N             0.9197516576        0.9197516576        9.9721176520
N             0.9075533823        4.5335727781        2.7205925119
N             0.9075608550        4.5316570525        6.3442412493
N             0.9072902075        4.5326224129        9.9713970483
N             0.9065710126        8.1586498691        2.7203412068
N             0.9098666768        8.1552728575        6.3410918944
N             0.9197615409        8.1452149972        9.9707852018
N             4.5335727781        0.9075533823        2.7205925119
N             4.5316570525        0.9075608550        6.3442412493
N             4.5326224129        0.9072902075        9.9713970483
N             4.5326192926        4.5326192926        2.7198731974
N             4.5326086440        4.5326086440        6.3449362130
N             4.5326386002        4.5326386002        9.9714015146
N             4.5316822836        8.1577016179        2.7205426318
N             4.5335790865        8.1576718588        6.3442380599
N             4.5326171828        8.1579376437        9.9713992352
N             8.1586498691        0.9065710126        2.7203412068
N             8.1552728575        0.9098666768        6.3410918944
N             8.1452149972        0.9197615409        9.9707852018
N             8.1577016179        4.5316822836        2.7205426318
N             8.1576718588        4.5335790865        6.3442380599
N             8.1579376437        4.5326171828        9.9713992352
N             8.1553917515        8.1553917515        2.7236714324
N             8.1586091605        8.1586091605        6.3444042666
N             8.1453882675        8.1453882675        9.9717451626
N             0.9099007786        2.7237982162        0.9099007786
N             0.9075533823        2.7205925119        4.5335727781
N             0.9065710126        2.7203412068        8.1586498691
N             0.9065882793        6.3443862629        0.9065882793
N             0.9075608550        6.3442412493        4.5316570525
N             0.9098666768        6.3410918944        8.1552728575
N             0.9197516576        9.9721176520        0.9197516576
N             0.9072902075        9.9713970483        4.5326224129
N             0.9197615409        9.9707852018        8.1452149972
N             4.5335727781        2.7205925119        0.9075533823
N             4.5326192926        2.7198731974        4.5326192926
N             4.5316822836        2.7205426318        8.1577016179
N             4.5316570525        6.3442412493        0.9075608550
N             4.5326086440        6.3449362130        4.5326086440
N             4.5335790865        6.3442380599        8.1576718588
N             4.5326224129        9.9713970483        0.9072902075
N             4.5326386002        9.9714015146        4.5326386002
N             4.5326171828        9.9713992352        8.1579376437
N             8.1586498691        2.7203412068        0.9065710126
N             8.1577016179        2.7205426318        4.5316822836
N             8.1553917515        2.7236714324        8.1553917515
N             8.1552728575        6.3410918944        0.9098666768
N             8.1576718588        6.3442380599        4.5335790865
N             8.1586091605        6.3444042666        8.1586091605
N             8.1452149972        9.9707852018        0.9197615409
N             8.1579376437        9.9713992352        4.5326171828
N             8.1453882675        9.9717451626        8.1453882675
N             2.7237982162        0.9099007786        0.9099007786
N             2.7205925119        0.9075533823        4.5335727781
N             2.7203412068        0.9065710126        8.1586498691
N             2.7205925119        4.5335727781        0.9075533823
N             2.7198731974        4.5326192926        4.5326192926
N             2.7205426318        4.5316822836        8.1577016179
N             2.7203412068        8.1586498691        0.9065710126
N             2.7205426318        8.1577016179        4.5316822836
N             2.7236714324        8.1553917515        8.1553917515
N             6.3443862629        0.9065882793        0.9065882793
N             6.3442412493        0.9075608550        4.5316570525
N             6.3410918944        0.9098666768        8.1552728575
N             6.3442412493        4.5316570525        0.9075608550
N             6.3449362130        4.5326086440        4.5326086440
N             6.3442380599        4.5335790865        8.1576718588
N             6.3410918944        8.1552728575        0.9098666768
N             6.3442380599        8.1576718588        4.5335790865
N             6.3444042666        8.1586091605        8.1586091605
N             9.9721176520        0.9197516576        0.9197516576
N             9.9713970483        0.9072902075        4.5326224129
N             9.9707852018        0.9197615409        8.1452149972
N             9.9713970483        4.5326224129        0.9072902075
N             9.9714015146        4.5326386002        4.5326386002
N             9.9713992352        4.5326171828        8.1579376437
N             9.9707852018        8.1452149972        0.9197615409
N             9.9713992352        8.1579376437        4.5326171828
N             9.9717451626        8.1453882675        8.1453882675
N             2.7208463728        2.7208463728        2.7208463728
N             2.7191245165        2.7191245165        6.3456941388
N             2.7239001781        2.7239001781        9.9716205979
N             2.7191245165        6.3456941388        2.7191245165
N             2.7209021904        6.3439379080        6.3439379080
N             2.7239869957        6.3408447860        9.9711107336
N             2.7239001781        9.9716205979        2.7239001781
N             2.7239869957        9.9711107336        6.3408447860
N             2.7208027815        9.9713846685        9.9713846685
N             6.3456941388        2.7191245165        2.7191245165
N             6.3439379080        2.7209021904        6.3439379080
N             6.3408447860        2.7239869957        9.9711107336
N             6.3439379080        6.3439379080        2.7209021904
N             6.3456578362        6.3456578362        6.3456578362
N             6.3409193240        6.3409193240        9.9717538328
N             6.3408447860        9.9711107336        2.7239869957
N             6.3409193240        9.9717538328        6.3409193240
N             6.3439229780        9.9713815640        9.9713815640
N             9.9716205979        2.7239001781        2.7239001781
N             9.9711107336        2.7239869957        6.3408447860
N             9.9713846685        2.7208027815        9.9713846685
N             9.9711107336        6.3408447860        2.7239869957
N             9.9717538328        6.3409193240        6.3409193240
N             9.9713815640        6.3439229780        9.9713815640
N             9.9713846685        9.9713846685        2.7208027815
N             9.9713815640        9.9713815640        6.3439229780
B             9.9715730421        9.9715730421        9.9715730421
K_POINTS gamma
CELL_PARAMETERS angstrom
     10.8780060000       0.0000000000       0.0000000000
      0.0000000000      10.8780060000       0.0000000000
      0.0000000000       0.0000000000      10.8780060000
