&CONTROL
  calculation = 'relax'
  etot_conv_thr =   2.1600000000d-03
  forc_conv_thr =   1.0000000000d-04
  outdir = './out/'
  prefix = 'aiida'
  pseudo_dir = './pseudo/'
  tprnfor = .true.
  tstress = .true.
  verbosity = 'high'
/
&SYSTEM
  degauss =   1.4699723600d-02
  ecutwfc =   10.0000000000d+01
  ibrav = 0
  nat = 217
  nosym = .false.
  ntyp = 2
  occupations = 'smearing'
  smearing = 'mv'
  tot_charge = -2
  nspin = 2
  starting_magnetization(1) =  0.5
  starting_magnetization(2) = -0.5
/
&ELECTRONS
  conv_thr =   4.3200000000d-08
  electron_maxstep = 500
  mixing_beta =   4.0000000000d-01
  scf_must_converge = .False.
/
&IONS
/
ATOMIC_SPECIES
B      10.811 B_ONCV_PBE-1.2.upf
N      14.0067 N_ONCV_PBE-1.2.upf
ATOMIC_POSITIONS angstrom
B            -0.1277316666        0.2267432021       -0.1277316666
B             0.0148594904        0.0123809493        3.6281716785
B            -0.0032433200        0.0074190666        7.2495083401
B            -0.0062787838        3.6400624705       -0.0062787838
B            -0.0036163262        3.6420547514        3.6385174914
B            -0.0023673170        3.6394336376        7.2389409045
B            -0.0189177653        7.2066238302       -0.0189177653
B            -0.0020355889        7.2099733973        3.6671175279
B            -0.0025396009        7.2519701296        7.2467832018
B             3.6281716785        0.0123809493        0.0148594904
B             3.6389723651        0.0060362633        3.6389723651
B             3.6253341271        0.0045066565        7.2545629312
B             3.6385174914        3.6420547514       -0.0036163262
B             3.6361568738        3.6388490889        3.6361568738
B             3.6300925955        3.6295076428        7.2506647699
B             3.6671175279        7.2099733973       -0.0020355889
B             3.6312380557        7.2531202836        3.6312380557
B             3.6312236926        7.2556527372        7.2490326228
B             7.2495083401        0.0074190666       -0.0032433200
B             7.2545629312        0.0045066565        3.6253341271
B             7.2483790981        0.0038698989        7.2483790981
B             7.2389409045        3.6394336376       -0.0023673170
B             7.2506647699        3.6295076428        3.6300925955
B             7.2492571939        3.6305527710        7.2492571939
B             7.2467832018        7.2519701296       -0.0025396009
B             7.2490326228        7.2556527372        3.6312236926
B             7.2500563488        7.2575205838        7.2500563488
B            -0.0136762435        1.8626193994        1.8265882336
B            -0.0006579561        1.8226256387        5.4425117939
B            -0.0065676212        1.8656729759        9.0205457605
B            -0.0055236472        5.4346138711        1.8184768928
B            -0.0013930085        5.4358877861        5.4496132942
B            -0.0054142599        5.4316961903        9.0508527166
B            -0.0544300329        8.8477922811        1.8677423953
B            -0.0006672470        9.0679867743        5.4391420903
B             0.0044085301        9.0643281924        9.0615398759
B             3.6701148717        1.8655007415        1.8196317882
B             3.6323697827        1.8190890757        5.4458290078
B             3.6277547514        1.8201949469        9.0631584762
B             3.6400735868        5.4316652248        1.8184462285
B             3.6311411226        5.4448137178        5.4427419115
B             3.6338373343        5.4361396233        9.0571006795
B             3.6294707801        9.0642371806        1.8086719367
B             3.6286016195        9.0693071664        5.4410616791
B             3.6218056726        9.0637514350        9.0693261723
B             7.2481610116        1.8226123332        1.8136423019
B             7.2516258132        1.8162497379        5.4392804339
B             7.2449649503        1.8191173801        9.0586144169
B             7.2410373418        5.4359558964        1.8142827861
B             7.2502749506        5.4434164644        5.4406724596
B             7.2481798217        5.4448117998        9.0598441577
B             7.2518689177        9.0680263805        1.8136596642
B             7.2529868094        9.0687552350        5.4379972963
B             7.2499560128        9.0692568710        9.0624075401
B             1.9403909951        0.2265581717        1.9403909951
B             1.8162775294        0.0073449459        5.4413800032
B             1.7983040196        0.0124194614        9.0630554561
B             1.8193244169        3.6401514393        1.8193244169
B             1.8153168830        3.6393043243        5.4516173760
B             1.8165499826        3.6421509885        9.0521248376
B             1.8320896910        7.2064064541        1.8320896910
B             1.8154127618        7.2519692782        5.4439374916
B             1.8150435913        7.2100300416        9.0237929410
B             5.4413800032        0.0073449459        1.8162775294
B             5.4424984748        0.0038945428        5.4424984748
B             5.4364501701        0.0044588627        9.0656147706
B             5.4516173760        3.6393043243        1.8153168830
B             5.4416543707        3.6305306753        5.4416543707
B             5.4401155070        3.6294609635        9.0608684339
B             5.4439374916        7.2519692782        1.8154127618
B             5.4409606619        7.2574935372        5.4409606619
B             5.4418937310        7.2555878477        9.0597563345
B             9.0630554561        0.0124194614        1.7983040196
B             9.0656147706        0.0044588627        5.4364501701
B             9.0519095091        0.0061151156        9.0519095091
B             9.0521248376        3.6421509885        1.8165499826
B             9.0608684339        3.6294609635        5.4401155070
B             9.0548373203        3.6388418595        9.0548373203
B             9.0237929410        7.2100300416        1.8150435913
B             9.0597563345        7.2555878477        5.4418937310
B             9.0599703796        7.2530934278        9.0599703796
B             1.8265882336        1.8626193994       -0.0136762435
B             1.8196317882        1.8655007415        3.6701148717
B             1.8136423019        1.8226123332        7.2481610116
B             1.8184768928        5.4346138711       -0.0055236472
B             1.8184462285        5.4316652248        3.6400735868
B             1.8142827861        5.4359558964        7.2410373418
B             1.8677423953        8.8477922811       -0.0544300329
B             1.8086719367        9.0642371806        3.6294707801
B             1.8136596642        9.0680263805        7.2518689177
B             5.4425117939        1.8226256387       -0.0006579561
B             5.4458290078        1.8190890757        3.6323697827
B             5.4392804339        1.8162497379        7.2516258132
B             5.4496132942        5.4358877861       -0.0013930085
B             5.4427419115        5.4448137178        3.6311411226
B             5.4406724596        5.4434164644        7.2502749506
B             5.4391420903        9.0679867743       -0.0006672470
B             5.4410616791        9.0693071664        3.6286016195
B             5.4379972963        9.0687552350        7.2529868094
B             9.0205457605        1.8656729759       -0.0065676212
B             9.0631584762        1.8201949469        3.6277547514
B             9.0586144169        1.8191173801        7.2449649503
B             9.0508527166        5.4316961903       -0.0054142599
B             9.0571006795        5.4361396233        3.6338373343
B             9.0598441577        5.4448117998        7.2481798217
B             9.0615398759        9.0643281924        0.0044085301
B             9.0693261723        9.0637514350        3.6218056726
B             9.0624075401        9.0692568710        7.2499560128
N             0.9118501973        1.0014307069        2.7929945830
N             0.9065654959        0.9129916396        6.3453208554
N             0.9011309274        1.0016532774        9.8977641295
N             0.9071312093        4.5370982449        2.7269048678
N             0.9065320199        4.5378943293        6.3451985372
N             0.9060207518        4.5369726615        9.9638410477
N             0.9049929566        8.0700789754        2.7919619031
N             0.9065653148        8.1619762371        6.3453671024
N             0.9084559498        8.0703681919        9.8989258810
N             4.5449597245        0.9203226386        2.7259788804
N             4.5350942532        0.9099593828        6.3491357154
N             4.5306437653        0.9109855675        9.9712543061
N             4.5437046039        4.5372119825        2.7268292564
N             4.5361678058        4.5370614526        6.3463018427
N             4.5413229012        4.5371554779        9.9654806836
N             4.5350618252        8.1616983648        2.7231013859
N             4.5348937729        8.1635995134        6.3458113163
N             4.5385890515        8.1556932387        9.9692704181
N             8.1604882450        0.9109608226        2.7195498462
N             8.1559929963        0.9099316882        6.3416242584
N             8.1458663361        0.9204314445        9.9649574920
N             8.1495541406        4.5374561482        2.7253056610
N             8.1549319286        4.5370888286        6.3444548962
N             8.1472821643        4.5372577434        9.9640458360
N             8.1526454088        8.1558618408        2.7214894480
N             8.1562466477        8.1635988484        6.3450421156
N             8.1561156536        8.1616644523        9.9678101242
N             0.9067569974        2.7396592938        0.9067569974
N             0.9079534241        2.7501625463        4.5577673555
N             0.9053892298        2.7504477184        8.1325938290
N             0.9065625343        6.3319743441        0.9065625343
N             0.9067779702        6.3253393069        4.5571816677
N             0.9062226857        6.3253915739        8.1335525772
N             0.9068280408        9.2874345391        0.9068280408
N             0.9087165362        9.9764654069        4.5321124304
N             0.9046768977        9.9765219522        8.1592674609
N             4.5577673555        2.7501625463        0.9079534241
N             4.5385687625        2.7250429049        4.5385687625
N             4.5346173664        2.7229087548        8.1565172060
N             4.5571816677        6.3253393069        0.9067779702
N             4.5370713479        6.3506057870        4.5370713479
N             4.5366646202        6.3492046593        8.1545335565
N             4.5321124304        9.9764654069        0.9087165362
N             4.5397718931        9.9773216618        4.5397718931
N             4.5272315225        9.9742164719        8.1639984845
N             8.1325938290        2.7504477184        0.9053892298
N             8.1565172060        2.7229087548        4.5346173664
N             8.1526691315        2.7248665875        8.1526691315
N             8.1335525772        6.3253915739        0.9062226857
N             8.1545335565        6.3492046593        4.5366646202
N             8.1542881162        6.3504751737        8.1542881162
N             8.1592674609        9.9765219522        0.9046768977
N             8.1639984845        9.9742164719        4.5272315225
N             8.1514268139        9.9771424140        8.1514268139
N             2.7929945830        1.0014307069        0.9118501973
N             2.7259788804        0.9203226386        4.5449597245
N             2.7195498462        0.9109608226        8.1604882450
N             2.7269048678        4.5370982449        0.9071312093
N             2.7268292564        4.5372119825        4.5437046039
N             2.7253056610        4.5374561482        8.1495541406
N             2.7919619031        8.0700789754        0.9049929566
N             2.7231013859        8.1616983648        4.5350618252
N             2.7214894480        8.1558618408        8.1526454088
N             6.3453208554        0.9129916396        0.9065654959
N             6.3491357154        0.9099593828        4.5350942532
N             6.3416242584        0.9099316882        8.1559929963
N             6.3451985372        4.5378943293        0.9065320199
N             6.3463018427        4.5370614526        4.5361678058
N             6.3444548962        4.5370888286        8.1549319286
N             6.3453671024        8.1619762371        0.9065653148
N             6.3458113163        8.1635995134        4.5348937729
N             6.3450421156        8.1635988484        8.1562466477
N             9.8977641295        1.0016532774        0.9011309274
N             9.9712543061        0.9109855675        4.5306437653
N             9.9649574920        0.9204314445        8.1458663361
N             9.9638410477        4.5369726615        0.9060207518
N             9.9654806836        4.5371554779        4.5413229012
N             9.9640458360        4.5372577434        8.1472821643
N             9.8989258810        8.0703681919        0.9084559498
N             9.9692704181        8.1556932387        4.5385890515
N             9.9678101242        8.1616644523        8.1561156536
N             2.7331915468        2.7486614160        2.7331915468
N             2.7242801173        2.7248584322        6.3484297320
N             2.7289116268        2.7454414249        9.9616041414
N             2.7325476685        6.3257975588        2.7325476685
N             2.7242136963        6.3495051906        6.3450299864
N             2.7315439110        6.3271843121        9.9593540926
N             2.7299080379        9.9933252831        2.7299080379
N             2.7198315994        9.9758188566        6.3468887708
N             2.6903395472        9.9639971770       10.0011106512
N             6.3484297320        2.7248584322        2.7242801173
N             6.3453318755        2.7227550933        6.3453318755
N             6.3419731525        2.7250285252        9.9664026959
N             6.3450299864        6.3495051906        2.7242136963
N             6.3453519425        6.3506515515        6.3453519425
N             6.3454799515        6.3495155426        9.9664509375
N             6.3468887708        9.9758188566        2.7198315994
N             6.3453165712        9.9756662000        6.3453165712
N             6.3438284095        9.9758204344        9.9708914896
N             9.9616041414        2.7454414249        2.7289116268
N             9.9664026959        2.7250285252        6.3419731525
N             9.9576618012        2.7485350342        9.9576618012
N             9.9593540926        6.3271843121        2.7315439110
N             9.9664509375        6.3495155426        6.3454799515
N             9.9585885211        6.3258965468        9.9585885211
N            10.0011106512        9.9639971770        2.6903395472
N             9.9708914896        9.9758204344        6.3438284095
N             9.9606874295        9.9933916653        9.9606874295
B             0.9062249670       -0.3090366466        0.9062249670
K_POINTS gamma
CELL_PARAMETERS angstrom
     10.8780060000       0.0000000000       0.0000000000
      0.0000000000      10.8780060000       0.0000000000
      0.0000000000       0.0000000000      10.8780060000
