&CONTROL
  calculation = 'scf'
  etot_conv_thr =   2.1600000000d-03
  forc_conv_thr =   1.0000000000d-04
  outdir = './out/'
  prefix = 'aiida'
  pseudo_dir = './pseudo/'
  tprnfor = .false.
  !tstress = .true.
  verbosity = 'high'
  disk_io   = 'high'
  max_seconds = 14400
  restart_mode = 'restart'
/
&SYSTEM
  degauss =   1.4699723600d-02
  ecutwfc =   10.0000000000d+01
  ibrav = 0
  nat = 216
  nosym = .false.
  ntyp = 2
  occupations = 'smearing'
  smearing = 'mv'
  tot_charge = 0
  nspin = 2
  starting_magnetization(1) =  0.5
  starting_magnetization(2) = -0.5
  input_dft = 'pbe0'
  exx_fraction = 0.23
  ecutfock = 120
  ace = .true.
  localization_thr = 0.001
/
&ELECTRONS
  conv_thr =   4.3200000000d-08
  electron_maxstep = 80
  mixing_beta =   4.0000000000d-01
  adaptive_thr = .True.
  conv_thr_init = 1.D-3
  conv_thr_multi = 1.D-2
/
&IONS
/
ATOMIC_SPECIES
B      10.811 B_ONCV_PBE-1.2.upf
N      14.0067 N_ONCV_PBE-1.2.upf
ATOMIC_POSITIONS (angstrom)
B             0.0549704495        0.0549704495        0.0549704495
B             0.0033375284        0.0033375284        3.6262136056
B            -0.0016798897       -0.0016798897        7.2480862703
B             0.0033375284        3.6262136056        0.0033375284
B             0.0005703730        3.6306441067        3.6306441067
B             0.0014219798        3.6257602406        7.2521957217
B            -0.0016798897        7.2480862703       -0.0016798897
B             0.0014219798        7.2521957217        3.6257602406
B            -0.0006634170        7.2347270525        7.2347270525
B             3.6262136056        0.0033375284        0.0033375284
B             3.6306441067        0.0005703730        3.6306441067
B             3.6257602406        0.0014219798        7.2521957217
B             3.6306441067        3.6306441067        0.0005703730
B             3.6268442611        3.6268442611        3.6268442611
B             3.6258058357        3.6258058357        7.2512872577
B             3.6257602406        7.2521957217        0.0014219798
B             3.6258058357        7.2512872577        3.6258058357
B             3.6263406914        7.2498504695        7.2498504695
B             7.2480862703       -0.0016798897       -0.0016798897
B             7.2521957217        0.0014219798        3.6257602406
B             7.2347270525       -0.0006634170        7.2347270525
B             7.2521957217        3.6257602406        0.0014219798
B             7.2512872577        3.6258058357        3.6258058357
B             7.2498504695        3.6263406914        7.2498504695
B             7.2347270525        7.2347270525       -0.0006634170
B             7.2498504695        7.2498504695        3.6263406914
B             7.2489230380        7.2489230380        7.2489230380
B             0.0026218724        1.8296400784        1.8296400784
B             0.0010531254        1.8139532064        5.4383042806
B             0.0078882934        1.8125768867        9.0745488519
B             0.0010531254        5.4383042806        1.8139532064
B             0.0003052943        5.4358436991        5.4358436991
B             0.0001071407        5.4360501739        9.0644101526
B             0.0078882934        9.0745488519        1.8125768867
B             0.0001071407        9.0644101526        5.4360501739
B             0.0344736619        8.9895924436        8.9895924436
B             3.6300764890        1.8158033337        1.8158033337
B             3.6261755461        1.8138805904        5.4399023420
B             3.6276522528        1.8160721349        9.0654984871
B             3.6261755461        5.4399023420        1.8138805904
B             3.6260114153        5.4382360058        5.4382360058
B             3.6272100985        5.4371580261        9.0636863025
B             3.6276522528        9.0654984871        1.8160721349
B             3.6272100985        9.0636863025        5.4371580261
B             3.6237037896        9.0666126201        9.0666126201
B             7.2532055984        1.8132021781        1.8132021781
B             7.2499796142        1.8144566508        5.4361172640
B             7.2423427398        1.8208608259        9.0609820284
B             7.2499796142        5.4361172640        1.8144566508
B             7.2503903409        5.4377481333        5.4377481333
B             7.2493371854        5.4344176435        9.0634175741
B             7.2423427398        9.0609820284        1.8208608259
B             7.2493371854        9.0634175741        5.4344176435
B             7.2412289459        9.0602663477        9.0602663477
B             1.8296400784        0.0026218724        1.8296400784
B             1.8139532064        0.0010531254        5.4383042806
B             1.8125768867        0.0078882934        9.0745488519
B             1.8158033337        3.6300764890        1.8158033337
B             1.8138805904        3.6261755461        5.4399023420
B             1.8160721349        3.6276522528        9.0654984871
B             1.8132021781        7.2532055984        1.8132021781
B             1.8144566508        7.2499796142        5.4361172640
B             1.8208608259        7.2423427398        9.0609820284
B             5.4383042806        0.0010531254        1.8139532064
B             5.4358436991        0.0003052943        5.4358436991
B             5.4360501739        0.0001071407        9.0644101526
B             5.4399023420        3.6261755461        1.8138805904
B             5.4382360058        3.6260114153        5.4382360058
B             5.4371580261        3.6272100985        9.0636863025
B             5.4361172640        7.2499796142        1.8144566508
B             5.4377481333        7.2503903409        5.4377481333
B             5.4344176435        7.2493371854        9.0634175741
B             9.0745488519        0.0078882934        1.8125768867
B             9.0644101526        0.0001071407        5.4360501739
B             8.9895924436        0.0344736619        8.9895924436
B             9.0654984871        3.6276522528        1.8160721349
B             9.0636863025        3.6272100985        5.4371580261
B             9.0666126201        3.6237037896        9.0666126201
B             9.0609820284        7.2423427398        1.8208608259
B             9.0634175741        7.2493371854        5.4344176435
B             9.0602663477        7.2412289459        9.0602663477
B             1.8296400784        1.8296400784        0.0026218724
B             1.8158033337        1.8158033337        3.6300764890
B             1.8132021781        1.8132021781        7.2532055984
B             1.8139532064        5.4383042806        0.0010531254
B             1.8138805904        5.4399023420        3.6261755461
B             1.8144566508        5.4361172640        7.2499796142
B             1.8125768867        9.0745488519        0.0078882934
B             1.8160721349        9.0654984871        3.6276522528
B             1.8208608259        9.0609820284        7.2423427398
B             5.4383042806        1.8139532064        0.0010531254
B             5.4399023420        1.8138805904        3.6261755461
B             5.4361172640        1.8144566508        7.2499796142
B             5.4358436991        5.4358436991        0.0003052943
B             5.4382360058        5.4382360058        3.6260114153
B             5.4377481333        5.4377481333        7.2503903409
B             5.4360501739        9.0644101526        0.0001071407
B             5.4371580261        9.0636863025        3.6272100985
B             5.4344176435        9.0634175741        7.2493371854
B             9.0745488519        1.8125768867        0.0078882934
B             9.0654984871        1.8160721349        3.6276522528
B             9.0609820284        1.8208608259        7.2423427398
B             9.0644101526        5.4360501739        0.0001071407
B             9.0636863025        5.4371580261        3.6272100985
B             9.0634175741        5.4344176435        7.2493371854
B             8.9895924436        8.9895924436        0.0344736619
B             9.0666126201        9.0666126201        3.6237037896
B             9.0602663477        9.0602663477        7.2412289459
N             0.9132786655        0.9132786655        2.7299450085
N             0.9067179124        0.9067179124        6.3446247544
N             0.9437764359        0.9437764359        9.9808573807
N             0.9081857715        4.5357354122        2.7222211831
N             0.9073080188        4.5321198828        6.3447040388
N             0.9077566089        4.5331548601        9.9714535847
N             0.9077424857        8.1579539295        2.7211886777
N             0.9073348372        8.1553142770        6.3411327312
N             0.9108415904        8.1488393843        9.9715331842
N             4.5357354122        0.9081857715        2.7222211831
N             4.5321198828        0.9073080188        6.3447040388
N             4.5331548601        0.9077566089        9.9714535847
N             4.5334008404        4.5334008404        2.7202030728
N             4.5323306243        4.5323306243        6.3447641230
N             4.5337797827        4.5337797827        9.9712898544
N             4.5330337046        8.1572559331        2.7205605390
N             4.5310705345        8.1569347273        6.3437787204
N             4.5307449046        8.1579286938        9.9710424871
N             8.1579539295        0.9077424857        2.7211886777
N             8.1553142770        0.9073348372        6.3411327312
N             8.1488393843        0.9108415904        9.9715331842
N             8.1572559331        4.5330337046        2.7205605390
N             8.1569347273        4.5310705345        6.3437787204
N             8.1579286938        4.5307449046        9.9710424871
N             8.1571451093        8.1571451093        2.7198045382
N             8.1548336305        8.1548336305        6.3393092650
N             8.1325326383        8.1325326383        9.9674222175
N             0.9132786655        2.7299450085        0.9132786655
N             0.9081857715        2.7222211831        4.5357354122
N             0.9077424857        2.7211886777        8.1579539295
N             0.9067179124        6.3446247544        0.9067179124
N             0.9073080188        6.3447040388        4.5321198828
N             0.9073348372        6.3411327312        8.1553142770
N             0.9437764359        9.9808573807        0.9437764359
N             0.9077566089        9.9714535847        4.5331548601
N             0.9108415904        9.9715331842        8.1488393843
N             4.5357354122        2.7222211831        0.9081857715
N             4.5334008404        2.7202030728        4.5334008404
N             4.5330337046        2.7205605390        8.1572559331
N             4.5321198828        6.3447040388        0.9073080188
N             4.5323306243        6.3447641230        4.5323306243
N             4.5310705345        6.3437787204        8.1569347273
N             4.5331548601        9.9714535847        0.9077566089
N             4.5337797827        9.9712898544        4.5337797827
N             4.5307449046        9.9710424871        8.1579286938
N             8.1579539295        2.7211886777        0.9077424857
N             8.1572559331        2.7205605390        4.5330337046
N             8.1571451093        2.7198045382        8.1571451093
N             8.1553142770        6.3411327312        0.9073348372
N             8.1569347273        6.3437787204        4.5310705345
N             8.1548336305        6.3393092650        8.1548336305
N             8.1488393843        9.9715331842        0.9108415904
N             8.1579286938        9.9710424871        4.5307449046
N             8.1325326383        9.9674222175        8.1325326383
N             2.7299450085        0.9132786655        0.9132786655
N             2.7222211831        0.9081857715        4.5357354122
N             2.7211886777        0.9077424857        8.1579539295
N             2.7222211831        4.5357354122        0.9081857715
N             2.7202030728        4.5334008404        4.5334008404
N             2.7205605390        4.5330337046        8.1572559331
N             2.7211886777        8.1579539295        0.9077424857
N             2.7205605390        8.1572559331        4.5330337046
N             2.7198045382        8.1571451093        8.1571451093
N             6.3446247544        0.9067179124        0.9067179124
N             6.3447040388        0.9073080188        4.5321198828
N             6.3411327312        0.9073348372        8.1553142770
N             6.3447040388        4.5321198828        0.9073080188
N             6.3447641230        4.5323306243        4.5323306243
N             6.3437787204        4.5310705345        8.1569347273
N             6.3411327312        8.1553142770        0.9073348372
N             6.3437787204        8.1569347273        4.5310705345
N             6.3393092650        8.1548336305        8.1548336305
N             9.9808573807        0.9437764359        0.9437764359
N             9.9714535847        0.9077566089        4.5331548601
N             9.9715331842        0.9108415904        8.1488393843
N             9.9714535847        4.5331548601        0.9077566089
N             9.9712898544        4.5337797827        4.5337797827
N             9.9710424871        4.5307449046        8.1579286938
N             9.9715331842        8.1488393843        0.9108415904
N             9.9710424871        8.1579286938        4.5307449046
N             9.9674222175        8.1325326383        8.1325326383
N             2.7224717833        2.7224717833        2.7224717833
N             2.7199792782        2.7199792782        6.3459369474
N             2.7315284278        2.7315284278        9.9724037454
N             2.7199792782        6.3459369474        2.7199792782
N             2.7194785171        6.3445161963        6.3445161963
N             2.7220361808        6.3425895070        9.9712638141
N             2.7315284278        9.9724037454        2.7315284278
N             2.7220361808        9.9712638141        6.3425895070
N             2.7185653993        9.9734999624        9.9734999624
N             6.3459369474        2.7199792782        2.7199792782
N             6.3445161963        2.7194785171        6.3445161963
N             6.3425895070        2.7220361808        9.9712638141
N             6.3445161963        6.3445161963        2.7194785171
N             6.3435691397        6.3435691397        6.3435691397
N             6.3368462037        6.3368462037        9.9704268004
N             6.3425895070        9.9712638141        2.7220361808
N             6.3368462037        9.9704268004        6.3368462037
N             6.3426251114        9.9695296527        9.9695296527
N             9.9724037454        2.7315284278        2.7315284278
N             9.9712638141        2.7220361808        6.3425895070
N             9.9734999624        2.7185653993        9.9734999624
N             9.9712638141        6.3425895070        2.7220361808
N             9.9704268004        6.3368462037        6.3368462037
N             9.9695296527        6.3426251114        9.9695296527
N             9.9734999624        9.9734999624        2.7185653993
N             9.9695296527        9.9695296527        6.3426251114
B            10.0173006691       10.0173006691       10.0173006691
K_POINTS gamma
CELL_PARAMETERS angstrom
     10.8780060000       0.0000000000       0.0000000000
      0.0000000000      10.8780060000       0.0000000000
      0.0000000000       0.0000000000      10.8780060000
