&CONTROL
  calculation = 'scf'
  etot_conv_thr =   2.1600000000d-03
  forc_conv_thr =   1.0000000000d-04
  outdir = './out/'
  prefix = 'aiida'
  pseudo_dir = './pseudo/'
  tprnfor = .true.
  !tstress = .true.
  verbosity = 'high'
  disk_io   = 'high'
  max_seconds = 14400
/
&SYSTEM
  degauss =   1.4699723600d-02
  ecutwfc =   10.0000000000d+01
  ibrav = 0
  nat = 216
  nosym = .false.
  ntyp = 2
  occupations = 'smearing'
  smearing = 'mv'
  tot_charge = -2
  nspin = 2
  starting_magnetization(1) =  0.5
  starting_magnetization(2) = -0.5
  input_dft = 'pbe0'
  exx_fraction = 0.23
  ecutfock = 120
  ace = .true.
  localization_thr = 0.001
/
&ELECTRONS
  conv_thr =   4.3200000000d-08
  electron_maxstep = 80
  mixing_beta =   4.0000000000d-01
  adaptive_thr = .True.
  conv_thr_init = 1.D-3 
  conv_thr_multi = 1.D-2
/
&IONS
/
ATOMIC_SPECIES
B      10.811 B_ONCV_PBE-1.2.upf
N      14.0067 N_ONCV_PBE-1.2.upf
ATOMIC_POSITIONS (angstrom)
N             0.0000000000        0.0000000000        0.0000000000
B            -0.0000000000       -0.0000000000        3.6216803399
B            -0.0000000000        0.0000000000        7.2563256601
B            -0.0000000000        3.6216803399        0.0000000000
B            -0.0041394844        3.6344885247        3.6344885247
B             0.0041394844        3.6344885247        7.2435174753
B            -0.0000000000        7.2563256601       -0.0000000000
B             0.0041394844        7.2435174753        3.6344885247
B            -0.0041394844        7.2435174753        7.2435174753
B             3.6216803399       -0.0000000000       -0.0000000000
B             3.6344885247       -0.0041394844        3.6344885247
B             3.6344885247        0.0041394844        7.2435174753
B             3.6344885247        3.6344885247       -0.0041394844
B             3.6239120470        3.6239120470        3.6239120470
B             3.6281430625        3.6281430625        7.2498629375
B             3.6344885247        7.2435174753        0.0041394844
B             3.6281430625        7.2498629375        3.6281430625
B             3.6239120470        7.2540939530        7.2540939530
B             7.2563256601       -0.0000000000       -0.0000000000
B             7.2435174753        0.0041394844        3.6344885247
B             7.2435174753       -0.0041394844        7.2435174753
B             7.2435174753        3.6344885247        0.0041394844
B             7.2498629375        3.6281430625        3.6281430625
B             7.2540939530        3.6239120470        7.2540939530
B             7.2435174753        7.2435174753       -0.0041394844
B             7.2540939530        7.2540939530        3.6239120470
B             7.2498629375        7.2498629375        7.2498629375
B            -0.0203865310        1.8260604927        1.8260604927
B            -0.0000000000        1.8129464353        5.4390030000
B             0.0203865310        1.8260604927        9.0519455073
B             0.0000000000        5.4390030000        1.8129464353
B             0.0000000000        5.4390030000        5.4390030000
B             0.0000000000        5.4390030000        9.0650595647
B             0.0203865310        9.0519455073        1.8260604927
B            -0.0000000000        9.0650595647        5.4390030000
B            -0.0203865310        9.0519455073        9.0519455073
B             3.6227941458        1.8089540932        1.8089540932
B             3.6270367028        1.8135065823        5.4363667499
B             3.6348569684        1.8193129331        9.0586930669
B             3.6270367028        5.4363667499        1.8135065823
B             3.6260565367        5.4390030000        5.4390030000
B             3.6270367028        5.4416392501        9.0644994177
B             3.6348569684        9.0586930669        1.8193129331
B             3.6270367028        9.0644994177        5.4416392501
B             3.6227941458        9.0690519068        9.0690519068
B             7.2431490316        1.8193129331        1.8193129331
B             7.2509692972        1.8135065823        5.4416392501
B             7.2552118542        1.8089540932        9.0690519068
B             7.2509692972        5.4416392501        1.8135065823
B             7.2519494633        5.4390030000        5.4390030000
B             7.2509692972        5.4363667499        9.0644994177
B             7.2552118542        9.0690519068        1.8089540932
B             7.2509692972        9.0644994177        5.4363667499
B             7.2431490316        9.0586930669        9.0586930669
B             1.8260604927       -0.0203865310        1.8260604927
B             1.8129464353        0.0000000000        5.4390030000
B             1.8260604927        0.0203865310        9.0519455073
B             1.8089540932        3.6227941458        1.8089540932
B             1.8135065823        3.6270367028        5.4363667499
B             1.8193129331        3.6348569684        9.0586930669
B             1.8193129331        7.2431490316        1.8193129331
B             1.8135065823        7.2509692972        5.4416392501
B             1.8089540932        7.2552118542        9.0690519068
B             5.4390030000        0.0000000000        1.8129464353
B             5.4390030000        0.0000000000        5.4390030000
B             5.4390030000        0.0000000000        9.0650595647
B             5.4363667499        3.6270367028        1.8135065823
B             5.4390030000        3.6260565367        5.4390030000
B             5.4416392501        3.6270367028        9.0644994177
B             5.4416392501        7.2509692972        1.8135065823
B             5.4390030000        7.2519494633        5.4390030000
B             5.4363667499        7.2509692972        9.0644994177
B             9.0519455073        0.0203865310        1.8260604927
B             9.0650595647        0.0000000000        5.4390030000
B             9.0519455073       -0.0203865310        9.0519455073
B             9.0586930669        3.6348569684        1.8193129331
B             9.0644994177        3.6270367028        5.4416392501
B             9.0690519068        3.6227941458        9.0690519068
B             9.0690519068        7.2552118542        1.8089540932
B             9.0644994177        7.2509692972        5.4363667499
B             9.0586930669        7.2431490316        9.0586930669
B             1.8260604927        1.8260604927       -0.0203865310
B             1.8089540932        1.8089540932        3.6227941458
B             1.8193129331        1.8193129331        7.2431490316
B             1.8129464353        5.4390030000       -0.0000000000
B             1.8135065823        5.4363667499        3.6270367028
B             1.8135065823        5.4416392501        7.2509692972
B             1.8260604927        9.0519455073        0.0203865310
B             1.8193129331        9.0586930669        3.6348569684
B             1.8089540932        9.0690519068        7.2552118542
B             5.4390030000        1.8129464353        0.0000000000
B             5.4363667499        1.8135065823        3.6270367028
B             5.4416392501        1.8135065823        7.2509692972
B             5.4390030000        5.4390030000        0.0000000000
B             5.4390030000        5.4390030000        3.6260565367
B             5.4390030000        5.4390030000        7.2519494633
B             5.4390030000        9.0650595647        0.0000000000
B             5.4416392501        9.0644994177        3.6270367028
B             5.4363667499        9.0644994177        7.2509692972
B             9.0519455073        1.8260604927        0.0203865310
B             9.0586930669        1.8193129331        3.6348569684
B             9.0690519068        1.8089540932        7.2552118542
B             9.0650595647        5.4390030000        0.0000000000
B             9.0644994177        5.4416392501        3.6270367028
B             9.0644994177        5.4363667499        7.2509692972
B             9.0519455073        9.0519455073       -0.0203865310
B             9.0690519068        9.0690519068        3.6227941458
B             9.0586930669        9.0586930669        7.2431490316
N             0.9033622962        0.9033622962        2.7202002592
N             0.9082927457        0.9082927457        6.3432621520
N             1.0382696394        1.0382696394        9.8397363606
N             0.9070104441        4.5339667170        2.7214863385
N             0.9077862063        4.5385483260        6.3394576740
N             0.9082927457        4.5347438480        9.9697132543
N             0.9109809689        8.1315727508        2.7464332492
N             0.9070104441        8.1565196615        6.3440392830
N             0.9033622962        8.1578057408        9.9746437038
N             4.5339667170        0.9070104441        2.7214863385
N             4.5385483260        0.9077862063        6.3394576740
N             4.5347438480        0.9082927457        9.9697132543
N             4.5319973541        4.5319973541        2.7207392459
N             4.5339123848        4.5339123848        6.3440936152
N             4.5385483260        4.5385483260        9.9702197937
N             4.5387801125        8.1537729249        2.7242330751
N             4.5319973541        8.1572667541        6.3460086459
N             4.5339667170        8.1565196615        9.9709955559
N             8.1315727508        0.9109809689        2.7464332492
N             8.1565196615        0.9070104441        6.3440392830
N             8.1578057408        0.9033622962        9.9746437038
N             8.1537729249        4.5387801125        2.7242330751
N             8.1572667541        4.5319973541        6.3460086459
N             8.1565196615        4.5339667170        9.9709955559
N             8.1601178163        8.1601178163        2.7178881837
N             8.1537729249        8.1537729249        6.3392258875
N             8.1315727508        8.1315727508        9.9670250311
N             0.9033622962        2.7202002592        0.9033622962
N             0.9070104441        2.7214863385        4.5339667170
N             0.9109809689        2.7464332492        8.1315727508
N             0.9082927457        6.3432621520        0.9082927457
N             0.9077862063        6.3394576740        4.5385483260
N             0.9070104441        6.3440392830        8.1565196615
N             1.0382696394        9.8397363606        1.0382696394
N             0.9082927457        9.9697132543        4.5347438480
N             0.9033622962        9.9746437038        8.1578057408
N             4.5339667170        2.7214863385        0.9070104441
N             4.5319973541        2.7207392459        4.5319973541
N             4.5387801125        2.7242330751        8.1537729249
N             4.5385483260        6.3394576740        0.9077862063
N             4.5339123848        6.3440936152        4.5339123848
N             4.5319973541        6.3460086459        8.1572667541
N             4.5347438480        9.9697132543        0.9082927457
N             4.5385483260        9.9702197937        4.5385483260
N             4.5339667170        9.9709955559        8.1565196615
N             8.1315727508        2.7464332492        0.9109809689
N             8.1537729249        2.7242330751        4.5387801125
N             8.1601178163        2.7178881837        8.1601178163
N             8.1565196615        6.3440392830        0.9070104441
N             8.1572667541        6.3460086459        4.5319973541
N             8.1537729249        6.3392258875        8.1537729249
N             8.1578057408        9.9746437038        0.9033622962
N             8.1565196615        9.9709955559        4.5339667170
N             8.1315727508        9.9670250311        8.1315727508
N             2.7202002592        0.9033622962        0.9033622962
N             2.7214863385        0.9070104441        4.5339667170
N             2.7464332492        0.9109809689        8.1315727508
N             2.7214863385        4.5339667170        0.9070104441
N             2.7207392459        4.5319973541        4.5319973541
N             2.7242330751        4.5387801125        8.1537729249
N             2.7464332492        8.1315727508        0.9109809689
N             2.7242330751        8.1537729249        4.5387801125
N             2.7178881837        8.1601178163        8.1601178163
N             6.3432621520        0.9082927457        0.9082927457
N             6.3394576740        0.9077862063        4.5385483260
N             6.3440392830        0.9070104441        8.1565196615
N             6.3394576740        4.5385483260        0.9077862063
N             6.3440936152        4.5339123848        4.5339123848
N             6.3460086459        4.5319973541        8.1572667541
N             6.3440392830        8.1565196615        0.9070104441
N             6.3460086459        8.1572667541        4.5319973541
N             6.3392258875        8.1537729249        8.1537729249
N             9.8397363606        1.0382696394        1.0382696394
N             9.9697132543        0.9082927457        4.5347438480
N             9.9746437038        0.9033622962        8.1578057408
N             9.9697132543        4.5347438480        0.9082927457
N             9.9702197937        4.5385483260        4.5385483260
N             9.9709955559        4.5339667170        8.1565196615
N             9.9746437038        8.1578057408        0.9033622962
N             9.9709955559        8.1565196615        4.5339667170
N             9.9670250311        8.1315727508        8.1315727508
N             2.7178881837        2.7178881837        2.7178881837
N             2.7242330751        2.7242330751        6.3392258875
N             2.7464332492        2.7464332492        9.9670250311
N             2.7242330751        6.3392258875        2.7242330751
N             2.7207392459        6.3460086459        6.3460086459
N             2.7214863385        6.3440392830        9.9709955559
N             2.7464332492        9.9670250311        2.7464332492
N             2.7214863385        9.9709955559        6.3440392830
N             2.7202002592        9.9746437038        9.9746437038
N             6.3392258875        2.7242330751        2.7242330751
N             6.3460086459        2.7207392459        6.3460086459
N             6.3440392830        2.7214863385        9.9709955559
N             6.3460086459        6.3460086459        2.7207392459
N             6.3440936152        6.3440936152        6.3440936152
N             6.3394576740        6.3394576740        9.9702197937
N             6.3440392830        9.9709955559        2.7214863385
N             6.3394576740        9.9702197937        6.3394576740
N             6.3432621520        9.9697132543        9.9697132543
N             9.9670250311        2.7464332492        2.7464332492
N             9.9709955559        2.7214863385        6.3440392830
N             9.9746437038        2.7202002592        9.9746437038
N             9.9709955559        6.3440392830        2.7214863385
N             9.9702197937        6.3394576740        6.3394576740
N             9.9697132543        6.3432621520        9.9697132543
N             9.9746437038        9.9746437038        2.7202002592
N             9.9697132543        9.9697132543        6.3432621520
N             9.8397363606        9.8397363606        9.8397363606
K_POINTS gamma
CELL_PARAMETERS angstrom
     10.8780060000       0.0000000000       0.0000000000
      0.0000000000      10.8780060000       0.0000000000
      0.0000000000       0.0000000000      10.8780060000
