&CONTROL
  calculation = 'scf'
  etot_conv_thr =   2.1600000000d-03
  forc_conv_thr =   1.0000000000d-04
  outdir = './out/'
  prefix = 'aiida'
  pseudo_dir = './pseudo/'
  tprnfor = .true.
  !tstress = .true.
  verbosity = 'high'
  disk_io   = 'high'
  max_seconds = 14400
/
&SYSTEM
  degauss =   1.4699723600d-02
  ecutwfc =   10.0000000000d+01
  ibrav = 0
  nat = 216
  nosym = .false.
  ntyp = 2
  occupations = 'smearing'
  smearing = 'mv'
  tot_charge = 2
  nspin = 2
  starting_magnetization(1) =  0.5
  starting_magnetization(2) = -0.5
  input_dft = 'pbe0'
  exx_fraction = 0.23
  ecutfock = 120
  ace = .true.
  localization_thr = 0.001
/
&ELECTRONS
  conv_thr =   4.3200000000d-08
  electron_maxstep = 80
  mixing_beta =   4.0000000000d-01
  adaptive_thr = .True.
  conv_thr_init = 1.D-3 
  conv_thr_multi = 1.D-2
/
&IONS
/
ATOMIC_SPECIES
B      10.811 B_ONCV_PBE-1.2.upf
N      14.0067 N_ONCV_PBE-1.2.upf
ATOMIC_POSITIONS (angstrom)
N             0.0000000000        0.0000000000        0.0000000000
B            -0.0000000000        0.0000000000        3.6383230857
B            -0.0000000000        0.0000000000        7.2396829143
B            -0.0000000000        3.6383230857        0.0000000000
B             0.0067255438        3.6289257845        3.6289257845
B            -0.0067255438        3.6289257845        7.2490802155
B            -0.0000000000        7.2396829143        0.0000000000
B            -0.0067255438        7.2490802155        3.6289257845
B             0.0067255438        7.2490802155        7.2490802155
B             3.6383230857        0.0000000000        0.0000000000
B             3.6289257845        0.0067255438        3.6289257845
B             3.6289257845       -0.0067255438        7.2490802155
B             3.6289257845        3.6289257845        0.0067255438
B             3.6310890547        3.6310890547        3.6310890547
B             3.6252747312        3.6252747312        7.2527312688
B             3.6289257845        7.2490802155       -0.0067255438
B             3.6252747312        7.2527312688        3.6252747312
B             3.6310890547        7.2469169453        7.2469169453
B             7.2396829143       -0.0000000000        0.0000000000
B             7.2490802155       -0.0067255438        3.6289257845
B             7.2490802155        0.0067255438        7.2490802155
B             7.2490802155        3.6289257845       -0.0067255438
B             7.2527312688        3.6252747312        3.6252747312
B             7.2469169453        3.6310890547        7.2469169453
B             7.2490802155        7.2490802155        0.0067255438
B             7.2469169453        7.2469169453        3.6310890547
B             7.2527312688        7.2527312688        7.2527312688
B             0.0420625782        1.8341313799        1.8341313799
B             0.0000000000        1.8152129056        5.4390030000
B            -0.0420625782        1.8341313799        9.0438746201
B             0.0000000000        5.4390030000        1.8152129056
B             0.0000000000        5.4390030000        5.4390030000
B            -0.0000000000        5.4390030000        9.0627930944
B            -0.0420625782        9.0438746201        1.8341313799
B            -0.0000000000        9.0627930944        5.4390030000
B             0.0420625782        9.0438746201        9.0438746201
B             3.6396365695        1.8242035155        1.8242035155
B             3.6278979348        1.8146178269        5.4420222040
B             3.6272190393        1.8100920953        9.0679139047
B             3.6278979348        5.4420222040        1.8146178269
B             3.6272695419        5.4390030000        5.4390030000
B             3.6278979348        5.4359837960        9.0633881731
B             3.6272190393        9.0679139047        1.8100920953
B             3.6278979348        9.0633881731        5.4359837960
B             3.6396365695        9.0538024845        9.0538024845
B             7.2507869607        1.8100920953        1.8100920953
B             7.2501080652        1.8146178269        5.4359837960
B             7.2383694305        1.8242035155        9.0538024845
B             7.2501080652        5.4359837960        1.8146178269
B             7.2507364581        5.4390030000        5.4390030000
B             7.2501080652        5.4420222040        9.0633881731
B             7.2383694305        9.0538024845        1.8242035155
B             7.2501080652        9.0633881731        5.4420222040
B             7.2507869607        9.0679139047        9.0679139047
B             1.8341313799        0.0420625782        1.8341313799
B             1.8152129056        0.0000000000        5.4390030000
B             1.8341313799       -0.0420625782        9.0438746201
B             1.8242035155        3.6396365695        1.8242035155
B             1.8146178269        3.6278979348        5.4420222040
B             1.8100920953        3.6272190393        9.0679139047
B             1.8100920953        7.2507869607        1.8100920953
B             1.8146178269        7.2501080652        5.4359837960
B             1.8242035155        7.2383694305        9.0538024845
B             5.4390030000        0.0000000000        1.8152129056
B             5.4390030000        0.0000000000        5.4390030000
B             5.4390030000       -0.0000000000        9.0627930944
B             5.4420222040        3.6278979348        1.8146178269
B             5.4390030000        3.6272695419        5.4390030000
B             5.4359837960        3.6278979348        9.0633881731
B             5.4359837960        7.2501080652        1.8146178269
B             5.4390030000        7.2507364581        5.4390030000
B             5.4420222040        7.2501080652        9.0633881731
B             9.0438746201       -0.0420625782        1.8341313799
B             9.0627930944        0.0000000000        5.4390030000
B             9.0438746201        0.0420625782        9.0438746201
B             9.0679139047        3.6272190393        1.8100920953
B             9.0633881731        3.6278979348        5.4359837960
B             9.0538024845        3.6396365695        9.0538024845
B             9.0538024845        7.2383694305        1.8242035155
B             9.0633881731        7.2501080652        5.4420222040
B             9.0679139047        7.2507869607        9.0679139047
B             1.8341313799        1.8341313799        0.0420625782
B             1.8242035155        1.8242035155        3.6396365695
B             1.8100920953        1.8100920953        7.2507869607
B             1.8152129056        5.4390030000       -0.0000000000
B             1.8146178269        5.4420222040        3.6278979348
B             1.8146178269        5.4359837960        7.2501080652
B             1.8341313799        9.0438746201       -0.0420625782
B             1.8100920953        9.0679139047        3.6272190393
B             1.8242035155        9.0538024845        7.2383694305
B             5.4390030000        1.8152129056        0.0000000000
B             5.4420222040        1.8146178269        3.6278979348
B             5.4359837960        1.8146178269        7.2501080652
B             5.4390030000        5.4390030000        0.0000000000
B             5.4390030000        5.4390030000        3.6272695419
B             5.4390030000        5.4390030000        7.2507364581
B             5.4390030000        9.0627930944        0.0000000000
B             5.4359837960        9.0633881731        3.6278979348
B             5.4420222040        9.0633881731        7.2501080652
B             9.0438746201        1.8341313799       -0.0420625782
B             9.0679139047        1.8100920953        3.6272190393
B             9.0538024845        1.8242035155        7.2383694305
B             9.0627930944        5.4390030000        0.0000000000
B             9.0633881731        5.4359837960        3.6278979348
B             9.0633881731        5.4420222040        7.2501080652
B             9.0438746201        9.0438746201        0.0420625782
B             9.0538024845        9.0538024845        3.6396365695
B             9.0679139047        9.0679139047        7.2507869607
N             0.9106358936        0.9106358936        2.7208605842
N             0.9051655954        0.9051655954        6.3468523529
N             0.8804713055        0.8804713055        9.9975346945
N             0.9076152918        4.5336896364        2.7195229959
N             0.9056721865        4.5297241546        6.3482818454
N             0.9051655954        4.5311536471        9.9728404046
N             0.9020509261        8.1718496710        2.7061563290
N             0.9076152918        8.1584830041        6.3443163636
N             0.9106358936        8.1571454158        9.9673701064
N             4.5336896364        0.9076152918        2.7195229959
N             4.5297241546        0.9056721865        6.3482818454
N             4.5311536471        0.9051655954        9.9728404046
N             4.5336954755        4.5336954755        2.7190680411
N             4.5314951603        4.5314951603        6.3465108397
N             4.5297241546        4.5297241546        9.9723338135
N             4.5275290106        8.1619369775        2.7160690225
N             4.5336954755        8.1589379589        6.3443105245
N             4.5336896364        8.1584830041        9.9703907082
N             8.1718496710        0.9020509261        2.7061563290
N             8.1584830041        0.9076152918        6.3443163636
N             8.1571454158        0.9106358936        9.9673701064
N             8.1619369775        4.5275290106        2.7160690225
N             8.1589379589        4.5336954755        6.3443105245
N             8.1584830041        4.5336896364        9.9703907082
N             8.1552403842        8.1552403842        2.7227656158
N             8.1619369775        8.1619369775        6.3504769894
N             8.1718496710        8.1718496710        9.9759550739
N             0.9106358936        2.7208605842        0.9106358936
N             0.9076152918        2.7195229959        4.5336896364
N             0.9020509261        2.7061563290        8.1718496710
N             0.9051655954        6.3468523529        0.9051655954
N             0.9056721865        6.3482818454        4.5297241546
N             0.9076152918        6.3443163636        8.1584830041
N             0.8804713055        9.9975346945        0.8804713055
N             0.9051655954        9.9728404046        4.5311536471
N             0.9106358936        9.9673701064        8.1571454158
N             4.5336896364        2.7195229959        0.9076152918
N             4.5336954755        2.7190680411        4.5336954755
N             4.5275290106        2.7160690225        8.1619369775
N             4.5297241546        6.3482818454        0.9056721865
N             4.5314951603        6.3465108397        4.5314951603
N             4.5336954755        6.3443105245        8.1589379589
N             4.5311536471        9.9728404046        0.9051655954
N             4.5297241546        9.9723338135        4.5297241546
N             4.5336896364        9.9703907082        8.1584830041
N             8.1718496710        2.7061563290        0.9020509261
N             8.1619369775        2.7160690225        4.5275290106
N             8.1552403842        2.7227656158        8.1552403842
N             8.1584830041        6.3443163636        0.9076152918
N             8.1589379589        6.3443105245        4.5336954755
N             8.1619369775        6.3504769894        8.1619369775
N             8.1571454158        9.9673701064        0.9106358936
N             8.1584830041        9.9703907082        4.5336896364
N             8.1718496710        9.9759550739        8.1718496710
N             2.7208605842        0.9106358936        0.9106358936
N             2.7195229959        0.9076152918        4.5336896364
N             2.7061563290        0.9020509261        8.1718496710
N             2.7195229959        4.5336896364        0.9076152918
N             2.7190680411        4.5336954755        4.5336954755
N             2.7160690225        4.5275290106        8.1619369775
N             2.7061563290        8.1718496710        0.9020509261
N             2.7160690225        8.1619369775        4.5275290106
N             2.7227656158        8.1552403842        8.1552403842
N             6.3468523529        0.9051655954        0.9051655954
N             6.3482818454        0.9056721865        4.5297241546
N             6.3443163636        0.9076152918        8.1584830041
N             6.3482818454        4.5297241546        0.9056721865
N             6.3465108397        4.5314951603        4.5314951603
N             6.3443105245        4.5336954755        8.1589379589
N             6.3443163636        8.1584830041        0.9076152918
N             6.3443105245        8.1589379589        4.5336954755
N             6.3504769894        8.1619369775        8.1619369775
N             9.9975346945        0.8804713055        0.8804713055
N             9.9728404046        0.9051655954        4.5311536471
N             9.9673701064        0.9106358936        8.1571454158
N             9.9728404046        4.5311536471        0.9051655954
N             9.9723338135        4.5297241546        4.5297241546
N             9.9703907082        4.5336896364        8.1584830041
N             9.9673701064        8.1571454158        0.9106358936
N             9.9703907082        8.1584830041        4.5336896364
N             9.9759550739        8.1718496710        8.1718496710
N             2.7227656158        2.7227656158        2.7227656158
N             2.7160690225        2.7160690225        6.3504769894
N             2.7061563290        2.7061563290        9.9759550739
N             2.7160690225        6.3504769894        2.7160690225
N             2.7190680411        6.3443105245        6.3443105245
N             2.7195229959        6.3443163636        9.9703907082
N             2.7061563290        9.9759550739        2.7061563290
N             2.7195229959        9.9703907082        6.3443163636
N             2.7208605842        9.9673701064        9.9673701064
N             6.3504769894        2.7160690225        2.7160690225
N             6.3443105245        2.7190680411        6.3443105245
N             6.3443163636        2.7195229959        9.9703907082
N             6.3443105245        6.3443105245        2.7190680411
N             6.3465108397        6.3465108397        6.3465108397
N             6.3482818454        6.3482818454        9.9723338135
N             6.3443163636        9.9703907082        2.7195229959
N             6.3482818454        9.9723338135        6.3482818454
N             6.3468523529        9.9728404046        9.9728404046
N             9.9759550739        2.7061563290        2.7061563290
N             9.9703907082        2.7195229959        6.3443163636
N             9.9673701064        2.7208605842        9.9673701064
N             9.9703907082        6.3443163636        2.7195229959
N             9.9723338135        6.3482818454        6.3482818454
N             9.9728404046        6.3468523529        9.9728404046
N             9.9673701064        9.9673701064        2.7208605842
N             9.9728404046        9.9728404046        6.3468523529
N             9.9975346945        9.9975346945        9.9975346945
K_POINTS gamma
CELL_PARAMETERS angstrom
     10.8780060000       0.0000000000       0.0000000000
      0.0000000000      10.8780060000       0.0000000000
      0.0000000000       0.0000000000      10.8780060000
