&CONTROL
  calculation = 'scf'
  etot_conv_thr =   2.1600000000d-03
  forc_conv_thr =   1.0000000000d-04
  outdir = './out/'
  prefix = 'aiida'
  pseudo_dir = './pseudo/'
  tprnfor = .true.
  !tstress = .true.
  verbosity = 'high'
  disk_io   = 'high'
  max_seconds = 14400
/
&SYSTEM
  degauss =   1.4699723600d-02
  ecutwfc =   10.0000000000d+01
  ibrav = 0
  nat = 215
  nosym = .false.
  ntyp = 2
  occupations = 'smearing'
  smearing = 'mv'
  tot_charge = 0
  nspin = 2
  starting_magnetization(1) =  0.5
  starting_magnetization(2) = -0.5
  input_dft = 'pbe0'
  exx_fraction = 0.23
  ecutfock = 120
  ace = .true.
  localization_thr = 0.001
/
&ELECTRONS
  conv_thr =   4.3200000000d-08
  electron_maxstep = 80
  mixing_beta =   4.0000000000d-01
  adaptive_thr = .True.
  conv_thr_init = 1.D-3 
  conv_thr_multi = 1.D-2
/
&IONS
/
ATOMIC_SPECIES
B      10.811 B_ONCV_PBE-1.2.upf
N      14.0067 N_ONCV_PBE-1.2.upf
ATOMIC_POSITIONS (angstrom)
B             0.0053277635        0.0053277635        0.0066706559
N            -0.0724185107       -0.0724185107        3.6984216780
B            -0.0012699766       -0.0012699766        7.2517056405
B             0.0045006962        3.6330354877       -0.0070323204
B             0.0053278210        3.6193325012        3.6206753936
B            -0.0001652979        3.6275006893        7.2532340933
B            -0.0001652404        7.2507715823       -0.0014975322
B            -0.0012700341        7.2523000351        3.6272731337
B             0.0010788385        7.2438055146        7.2602001712
B             3.6330354877        0.0045006962       -0.0070323204
B             3.6193325012        0.0053278210        3.6206753936
B             3.6275006893       -0.0001652979        7.2532340933
B             3.6306016523        3.6306016523       -0.0045984377
B             3.6330355187        3.6330355187        3.6215025021
B             3.6260256180        3.6260256180        7.2476614054
B             3.6260255669        7.2563442293       -0.0000224673
B             3.6275007404        7.2507715414        3.6261684486
B             3.6267662629        7.2519436407        7.2520619627
B             7.2507715823       -0.0001652404       -0.0014975322
B             7.2523000351       -0.0012700341        3.6272731337
B             7.2438055146        0.0010788385        7.2602001712
B             7.2563442293        3.6260255669       -0.0000224673
B             7.2507715414        3.6275007404        3.6261684486
B             7.2519436407        3.6267662629        7.2520619627
B             7.2519436819        7.2519436819       -0.0007630071
B             7.2438054734        7.2438054734        3.6249244173
B             7.2515321382        7.2515321382        7.2524734454
B             0.0535375078        1.8374961142        1.7885035148
B            -0.0062575711        1.8126094866        5.4377678574
B             0.0029591767        1.8133033470        9.0637323286
B             0.0029592449        5.4402768569        1.8126962738
B             0.0005596918        5.4360334772        5.4366805457
B             0.0012350550        5.4387834390        9.0652257547
B            -0.0062576393        9.0662413281        1.8133901342
B             0.0017924263        9.0432248590        5.4607843347
B             0.0005597600        9.0673286398        9.0679757083
B             3.6369864142        1.8223937361        1.8036058593
B             3.6177858647        1.8151862288        5.4273175181
B             3.6279721395        1.8154457555        9.0605449390
B             3.6279720893        5.4434643456        1.8105537985
B             3.6263977412        5.4380806167        5.4375091422
B             3.6276245647        5.4410099567        9.0629992047
B             3.6177859149        9.0766917665        1.8108133252
B             3.6279182766        9.0644657154        5.4395434460
B             3.6263978037        9.0665000601        9.0659285856
B             7.2564153994        1.8108196872        1.8151798446
B             7.2472065807        1.8145450040        5.4414249238
B             7.2543927806        1.8147138265        9.0677432533
B             7.2543928426        5.4362658985        1.8112857593
B             7.2512784577        5.4379667423        5.4389711407
B             7.2530894348        5.4394336160        9.0645756464
B             7.2472065187        9.0625842280        1.8114545818
B             7.2486476678        9.0639691245        5.4400401379
B             7.2512784070        9.0650380934        9.0660424918
B             1.8374961142        0.0535375078        1.7885035148
B             1.8126094866       -0.0062575711        5.4377678574
B             1.8133033470        0.0029591767        9.0637323286
B             1.8223937361        3.6369864142        1.8036058593
B             1.8151862288        3.6177858647        5.4273175181
B             1.8154457555        3.6279721395        9.0605449390
B             1.8108196872        7.2564153994        1.8151798446
B             1.8145450040        7.2472065807        5.4414249238
B             1.8147138265        7.2543927806        9.0677432533
B             5.4402768569        0.0029592449        1.8126962738
B             5.4360334772        0.0005596918        5.4366805457
B             5.4387834390        0.0012350550        9.0652257547
B             5.4434643456        3.6279720893        1.8105537985
B             5.4380806167        3.6263977412        5.4375091422
B             5.4410099567        3.6276245647        9.0629992047
B             5.4362658985        7.2543928426        1.8112857593
B             5.4379667423        7.2512784577        5.4389711407
B             5.4394336160        7.2530894348        9.0645756464
B             9.0662413281       -0.0062576393        1.8133901342
B             9.0432248590        0.0017924263        5.4607843347
B             9.0673286398        0.0005597600        9.0679757083
B             9.0766917665        3.6177859149        1.8108133252
B             9.0644657154        3.6279182766        5.4395434460
B             9.0665000601        3.6263978037        9.0659285856
B             9.0625842280        7.2472065187        1.8114545818
B             9.0639691245        7.2486476678        5.4400401379
B             9.0650380934        7.2512784070        9.0660424918
B             1.8223937529        1.8223937529       -0.0109831197
B             1.8374960974        1.8374960974        3.5724657867
B             1.8108196872        1.8108196872        7.2475901716
B             1.8154457959        5.4434642951       -0.0019689250
B             1.8133033206        5.4402769074        3.6230439194
B             1.8147138169        5.4362658985        7.2496128288
B             1.8151862552        9.0766917179        0.0082172314
B             1.8126094462        9.0662413767        3.6322607856
B             1.8145450136        9.0625842280        7.2567990287
B             5.4434642951        1.8154457959       -0.0019689250
B             5.4402769074        1.8133033206        3.6230439194
B             5.4362658985        1.8147138169        7.2496128288
B             5.4410100072        5.4410100072       -0.0016214004
B             5.4387834390        5.4387834390        3.6247681088
B             5.4394335655        5.4394335655        7.2509162371
B             5.4380806167        9.0665000515       -0.0003945774
B             5.4360334267        9.0673286662        3.6254434725
B             5.4379667928        9.0650380712        7.2527272142
B             9.0766917179        1.8151862552        0.0082172314
B             9.0662413767        1.8126094462        3.6322607856
B             9.0625842280        1.8145450136        7.2567990287
B             9.0665000515        5.4380806167       -0.0003945774
B             9.0673286662        5.4360334267        3.6254434725
B             9.0650380712        5.4379667928        7.2527272142
B             9.0644656890        9.0644656890       -0.0019150441
B             9.0432248676        9.0432248676        3.6242108000
B             9.0639691467        9.0639691467        7.2553579534
N             0.9041931348        0.9041931348        6.3410415866
N             0.9106900518        0.9106900518        9.9704021648
N             0.9106899667        4.5336036155        2.7153130516
N             0.9072628060        4.5264570266        6.3384092511
N             0.9098557529        4.5358139023        9.9681916857
N             0.9041930244        8.1629676482        2.7218100424
N             0.9071426298        8.1401081285        6.3639009878
N             0.9072626155        8.1656001355        9.9775485106
N             4.5336036155        0.9106899667        2.7153130516
N             4.5264570266        0.9072628060        6.3384092511
N             4.5358139023        0.9098557529        9.9681916857
N             4.5358140572        4.5358140572        2.7161477150
N             4.5320302265        4.5320302265        6.3432366134
N             4.5352944690        4.5352944690        9.9687108777
N             4.5264570476        8.1655999407        2.7187406555
N             4.5328547252        8.1577576920        6.3462510972
N             4.5320304281        8.1607727045        9.9719754373
N             8.1629676482        0.9041930244        2.7218100424
N             8.1401081285        0.9071426298        6.3639009878
N             8.1656001355        0.9072626155        9.9775485106
N             8.1655999407        4.5264570476        2.7187406555
N             8.1577576920        4.5328547252        6.3462510972
N             8.1607727045        4.5320304281        9.9719754373
N             8.1401080438        8.1401080438        2.7188604732
N             8.1568536201        8.1568536201        6.3471555507
N             8.1577579827        8.1577579827        9.9711511281
N             0.9212937341        2.7313730033        0.8946300729
N             0.9030696638        2.6948777194        4.4976668326
N             0.9084030351        2.7201598790        8.1566496070
N             0.9084031455        6.3473596278        0.9058432982
N             0.9075414190        6.3441153992        4.5319765331
N             0.9076368894        6.3413742632        8.1626348531
N             0.9030697489       10.0063389477        0.9311253840
N             0.9685865854        9.8849886995        4.6190168885
N             0.9075412285        9.9720290041        8.1598939874
N             4.5390139183        2.7248088148        0.9011942035
N             4.5303978937        2.7194849346        4.5276790626
N             4.5326925104        2.7208586231        8.1551584672
N             4.5326924894        6.3488507246        0.9051448384
N             4.5332264634        6.3433466592        4.5311672496
N             4.5332904739        6.3459834521        8.1580253371
N             4.5303977388        9.9763266803        0.9065185333
N             4.5285443846        9.9742398520        4.5297654947
N             4.5332266650        9.9728384142        8.1606626587
N             8.1673167989        2.7165008657        0.9095022011
N             8.1513103326        2.7278686370        4.5317872920
N             8.1587967580        2.7211312352        8.1616193690
N             8.1587968427        6.3423896626        0.9048718678
N             8.1569013416        6.3409791129        4.5326567689
N             8.1586178479        6.3447180401        8.1592911307
N             8.1513105274        9.9722182662        0.8981346340
N             8.1533396093        9.9689499568        4.5350559086
N             8.1569016323        9.9713490844        8.1630299670
N             2.7313730033        0.9212937341        0.8946300729
N             2.6948777194        0.9030696638        4.4976668326
N             2.7201598790        0.9084030351        8.1566496070
N             2.7248088148        4.5390139183        0.9011942035
N             2.7194849346        4.5303978937        4.5276790626
N             2.7208586231        4.5326925104        8.1551584672
N             2.7165008657        8.1673167989        0.9095022011
N             2.7278686370        8.1513103326        4.5317872920
N             2.7211312352        8.1587967580        8.1616193690
N             6.3473596278        0.9084031455        0.9058432982
N             6.3441153992        0.9075414190        4.5319765331
N             6.3413742632        0.9076368894        8.1626348531
N             6.3488507246        4.5326924894        0.9051448384
N             6.3433466592        4.5332264634        4.5311672496
N             6.3459834521        4.5332904739        8.1580253371
N             6.3423896626        8.1587968427        0.9048718678
N             6.3409791129        8.1569013416        4.5326567689
N             6.3447180401        8.1586178479        8.1592911307
N            10.0063389477        0.9030697489        0.9311253840
N             9.8849886995        0.9685865854        4.6190168885
N             9.9720290041        0.9075412285        8.1598939874
N             9.9763266803        4.5303977388        0.9065185333
N             9.9742398520        4.5285443846        4.5297654947
N             9.9728384142        4.5332266650        8.1606626587
N             9.9722182662        8.1513105274        0.8981346340
N             9.9689499568        8.1533396093        4.5350559086
N             9.9713490844        8.1569016323        8.1630299670
N             2.7313731577        2.7313731577        2.7047094965
N             2.7165009663        2.7165009663        6.3366924725
N             2.7248088393        2.7248088393        9.9649919231
N             2.7201599796        6.3473596644        2.7176001323
N             2.7211314657        6.3423896507        6.3452122617
N             2.7208584980        6.3488505240        9.9713131754
N             2.6948777439       10.0063390088        2.7229333790
N             2.7278685119        9.9722183938        6.3526986586
N             2.7194845497        9.9763266871        9.9736078560
N             6.3473596644        2.7201599796        2.7176001323
N             6.3423896507        2.7211314657        6.3452122617
N             6.3488505240        2.7208584980        9.9713131754
N             6.3413742513        6.3413742513        2.7183664441
N             6.3447180621        6.3447180621        6.3453913449
N             6.3459836646        6.3459836646        9.9707150853
N             6.3441151986        9.9720291317        2.7184619174
N             6.3409793254        9.9713487903        6.3471076601
N             6.3433466006        9.9728382798        9.9707790660
N            10.0063390088        2.6948777439        2.7229333790
N             9.9722183938        2.7278685119        6.3526986586
N             9.9763266871        2.7194845497        9.9736078560
N             9.9720291317        6.3441151986        2.7184619174
N             9.9713487903        6.3409793254        6.3471076601
N             9.9728382798        6.3433466006        9.9707790660
N             9.8849887063        9.8849887063        2.6574164976
N             9.9689498224        9.9689498224        6.3506696500
N             9.9742400850        9.9742400850        9.9754611951
K_POINTS gamma
CELL_PARAMETERS angstrom
     10.8780060000       0.0000000000       0.0000000000
      0.0000000000      10.8780060000       0.0000000000
      0.0000000000       0.0000000000      10.8780060000
