&CONTROL
  calculation = 'scf'
  etot_conv_thr =   2.1600000000d-03
  forc_conv_thr =   1.0000000000d-04
  outdir = './out/'
  prefix = 'aiida'
  pseudo_dir = './pseudo/'
  tprnfor = .true.
  !tstress = .true.
  verbosity = 'high'
  disk_io   = 'high'
  max_seconds = 14400
/
&SYSTEM
  degauss =   1.4699723600d-02
  ecutwfc =   10.0000000000d+01
  ibrav = 0
  nat = 215
  nosym = .false.
  ntyp = 2
  occupations = 'smearing'
  smearing = 'mv'
  tot_charge = 1
  nspin = 2
  starting_magnetization(1) =  0.5
  starting_magnetization(2) = -0.5
  input_dft = 'pbe0'
  exx_fraction = 0.23
  ecutfock = 120
  ace = .true.
  localization_thr = 0.001
/
&ELECTRONS
  conv_thr =   4.3200000000d-08
  electron_maxstep = 80
  mixing_beta =   4.0000000000d-01
  adaptive_thr = .True.
  conv_thr_init = 1.D-3 
  conv_thr_multi = 1.D-2
/
&IONS
/
ATOMIC_SPECIES
B      10.811 B_ONCV_PBE-1.2.upf
N      14.0067 N_ONCV_PBE-1.2.upf
ATOMIC_POSITIONS (angstrom)
B             0.0073356486        0.0073356486        0.0062300947
N            -0.0756860826       -0.0756860826        3.7016892499
B            -0.0061357266       -0.0061357266        7.2613054888
B             0.0066175365        3.6359033357       -0.0099001684
B             0.0073357061        3.6197730624        3.6186675085
B             0.0048208497        3.6194217786        7.2457993575
B             0.0048209072        7.2582063181        0.0065813785
B            -0.0061357841        7.2427001868        3.6321388837
B            -0.0061119709        7.2440628002        7.2599428856
B             3.6359033357        0.0066175365       -0.0099001684
B             3.6197730624        0.0073357061        3.6186675085
B             3.6194217786        0.0048208497        7.2457993575
B             3.6341388089        3.6341388089       -0.0081355943
B             3.6359033667        3.6359033667        3.6193856618
B             3.6281817228        3.6281817228        7.2462661366
B             3.6281816717        7.2577394981       -0.0021785721
B             3.6194218297        7.2582062772        3.6211823010
B             3.6225808536        7.2543802062        7.2496253972
B             7.2582063181        0.0048209072        0.0065813785
B             7.2427001868       -0.0061357841        3.6321388837
B             7.2440628002       -0.0061119709        7.2599428856
B             7.2577394981        3.6281816717       -0.0021785721
B             7.2582062772        3.6194218297        3.6211823010
B             7.2543802062        3.6225808536        7.2496253972
B             7.2543802474        7.2543802474        0.0034224022
B             7.2440627590        7.2440627590        3.6321152267
B             7.2457153145        7.2457153145        7.2582902691
B             0.0655613691        1.8463867025        1.7796129265
B             0.0221333743        1.7971812800        5.4300551401
B             0.0038053110        1.8131520256        9.0646857724
B             0.0038053792        5.4393234131        1.8128475952
B            -0.0009897451        5.4323415286        5.4374579047
B             0.0022076808        5.4400109512        9.0639982425
B             0.0221333061        9.0739540454        1.8288183408
B            -0.0389057346        9.0311310880        5.4728781057
B            -0.0009896769        9.0665512808        9.0716676569
B             3.6418578840        1.8269148394        1.7990847560
B             3.6191878997        1.8189067107        5.4272396965
B             3.6311569165        1.8173934750        9.0581058255
B             3.6311568663        5.4459034591        1.8086060790
B             3.6240177569        5.4398425168        5.4358536756
B             3.6284771934        5.4433863845        9.0606227769
B             3.6191879499        9.0767695881        1.8070928433
B             3.6180619872        9.0711949728        5.4328141886
B             3.6240178194        9.0681555267        9.0641666855
B             7.2522724271        1.8155480724        1.8104514594
B             7.2520185846        1.8055723205        5.4373531136
B             7.2568240562        1.8137880339        9.0656869482
B             7.2568241182        5.4383222036        1.8122115519
B             7.2497701009        5.4313059801        5.4397796902
B             7.2535211375        5.4383001676        9.0657090948
B             7.2520185226        9.0666560382        1.8204272653
B             7.2332167655        9.0520687869        5.4519404755
B             7.2497700502        9.0642295439        9.0727032540
B             1.8463867025        0.0655613691        1.7796129265
B             1.7971812800        0.0221333743        5.4300551401
B             1.8131520256        0.0038053110        9.0646857724
B             1.8269148394        3.6418578840        1.7990847560
B             1.8189067107        3.6191878997        5.4272396965
B             1.8173934750        3.6311569165        9.0581058255
B             1.8155480724        7.2522724271        1.8104514594
B             1.8055723205        7.2520185846        5.4373531136
B             1.8137880339        7.2568240562        9.0656869482
B             5.4393234131        0.0038053792        1.8128475952
B             5.4323415286       -0.0009897451        5.4374579047
B             5.4400109512        0.0022076808        9.0639982425
B             5.4459034591        3.6311568663        1.8086060790
B             5.4398425168        3.6240177569        5.4358536756
B             5.4433863845        3.6284771934        9.0606227769
B             5.4383222036        7.2568241182        1.8122115519
B             5.4313059801        7.2497701009        5.4397796902
B             5.4383001676        7.2535211375        9.0657090948
B             9.0739540454        0.0221333061        1.8288183408
B             9.0311310880       -0.0389057346        5.4728781057
B             9.0665512808       -0.0009896769        9.0716676569
B             9.0767695881        3.6191879499        1.8070928433
B             9.0711949728        3.6180619872        5.4328141886
B             9.0681555267        3.6240178194        9.0641666855
B             9.0666560382        7.2520185226        1.8204272653
B             9.0520687869        7.2332167655        5.4519404755
B             9.0642295439        7.2497700502        9.0727032540
B             1.8269148562        1.8269148562       -0.0158545895
B             1.8463866857        1.8463866857        3.5604419254
B             1.8155480724        1.8155480724        7.2517331439
B             1.8173935154        5.4459034086       -0.0051537020
B             1.8131519992        5.4393234636        3.6221977851
B             1.8137880243        5.4383222036        7.2471815532
B             1.8189067371        9.0767695395        0.0068151964
B             1.7971812396        9.0739540940        3.6038698402
B             1.8055723301        9.0666560382        7.2519870248
B             5.4459034086        1.8173935154       -0.0051537020
B             5.4393234636        1.8131519992        3.6221977851
B             5.4383222036        1.8137880243        7.2471815532
B             5.4433864350        5.4433864350       -0.0024740291
B             5.4400109512        5.4400109512        3.6237954830
B             5.4383001171        5.4383001171        7.2504845344
B             5.4398425168        9.0681555181        0.0019854069
B             5.4323414781        9.0665513072        3.6269929094
B             5.4313060306        9.0642295217        7.2542355710
B             9.0767695395        1.8189067371        0.0068151964
B             9.0739540940        1.7971812396        3.6038698402
B             9.0666560382        1.8055723301        7.2519870248
B             9.0681555181        5.4398425168        0.0019854069
B             9.0665513072        5.4323414781        3.6269929094
B             9.0642295217        5.4313060306        7.2542355710
B             9.0711949464        9.0711949464        0.0079412453
B             9.0311310966        9.0311310966        3.6649089609
B             9.0520688091        9.0520688091        7.2707888557
N             0.9032855272        0.9032855272        6.3399985593
N             0.9113062403        0.9113062403        9.9712981577
N             0.9113061552        4.5327076226        2.7146968631
N             0.9065710791        4.5228990863        6.3349197932
N             0.9105212755        4.5383872737        9.9656183143
N             0.9032854168        8.1640106755        2.7227176500
N             0.8977887996        8.1547853943        6.3492237220
N             0.9065708886        8.1690895934        9.9811064509
N             4.5327076226        0.9113061552        2.7146968631
N             4.5228990863        0.9065710791        6.3349197932
N             4.5383872737        0.9105212755        9.9656183143
N             4.5383874286        4.5383874286        2.7154821924
N             4.5317943840        4.5317943840        6.3403906123
N             4.5375072656        4.5375072656        9.9664980811
N             4.5228991073        8.1690893986        2.7194323824
N             4.5230781123        8.1618323037        6.3421764855
N             4.5317945856        8.1636187056        9.9722112798
N             8.1640106755        0.9032854168        2.7227176500
N             8.1547853943        0.8977887996        6.3492237220
N             8.1690895934        0.9065708886        9.9811064509
N             8.1690893986        4.5228991073        2.7194323824
N             8.1618323037        4.5230781123        6.3421764855
N             8.1636187056        4.5317945856        9.9722112798
N             8.1547853096        8.1547853096        2.7282143034
N             8.1493104312        8.1493104312        6.3546987396
N             8.1618325944        8.1618325944        9.9809277410
N             0.9262734051        2.7357054287        0.8902976475
N             0.9048394080        2.6867550818        4.4909115783
N             0.9084944353        2.7181171723        8.1538442121
N             0.9084945457        6.3501650227        0.9078860049
N             0.9040795655        6.3442836251        4.5315709578
N             0.9057343596        6.3456635524        8.1583455639
N             0.9048394931       10.0130942020        0.9392480216
N             0.8266962150        9.9555899915        4.5484155965
N             0.9040793750        9.9724345794        8.1597257615
N             4.5431074144        2.7271007592        0.8989022591
N             4.5300765002        2.7182423565        4.5257593183
N             4.5349991845        2.7205688915        8.1516407261
N             4.5349991635        6.3523684657        0.9054345700
N             4.5258710819        6.3484179557        4.5301757769
N             4.5313174387        6.3480449673        8.1559638219
N             4.5300763453        9.9782464246        0.9077611114
N             4.5240503355        9.9760793086        4.5279260381
N             4.5258712835        9.9738298869        8.1555913622
N             8.1689257615        2.7162586335        0.9097444333
N             8.1775926731        2.6992290376        4.5268574386
N             8.1639678867        2.7152634969        8.1558000628
N             8.1639679714        6.3482089688        0.9107396061
N             8.1543887987        6.3360433177        4.5352859554
N             8.1584905249        6.3415839506        8.1624252202
N             8.1775928679        9.9771481196        0.9267742334
N             8.1392127277        9.9551287836        4.5488770818
N             8.1543890894        9.9687198979        8.1679657622
N             2.7357054287        0.9262734051        0.8902976475
N             2.6867550818        0.9048394080        4.4909115783
N             2.7181171723        0.9084944353        8.1538442121
N             2.7271007592        4.5431074144        0.8989022591
N             2.7182423565        4.5300765002        4.5257593183
N             2.7205688915        4.5349991845        8.1516407261
N             2.7162586335        8.1689257615        0.9097444333
N             2.6992290376        8.1775926731        4.5268574386
N             2.7152634969        8.1639678867        8.1558000628
N             6.3501650227        0.9084945457        0.9078860049
N             6.3442836251        0.9040795655        4.5315709578
N             6.3456635524        0.9057343596        8.1583455639
N             6.3523684657        4.5349991635        0.9054345700
N             6.3484179557        4.5258710819        4.5301757769
N             6.3480449673        4.5313174387        8.1559638219
N             6.3482089688        8.1639679714        0.9107396061
N             6.3360433177        8.1543887987        4.5352859554
N             6.3415839506        8.1584905249        8.1624252202
N            10.0130942020        0.9048394931        0.9392480216
N             9.9555899915        0.8266962150        4.5484155965
N             9.9724345794        0.9040793750        8.1597257615
N             9.9782464246        4.5300763453        0.9077611114
N             9.9760793086        4.5240503355        4.5279260381
N             9.9738298869        4.5258712835        8.1555913622
N             9.9771481196        8.1775928679        0.9267742334
N             9.9551287836        8.1392127277        4.5488770818
N             9.9687198979        8.1543890894        8.1679657622
N             2.7357055831        2.7357055831        2.6997298255
N             2.7162587341        2.7162587341        6.3350835099
N             2.7271007837        2.7271007837        9.9608984270
N             2.7181172729        6.3501650593        2.7175087321
N             2.7152637274        6.3482089569        6.3400411330
N             2.7205687664        6.3523682651        9.9690065013
N             2.6867551063       10.0130942631        2.7211636348
N             2.6992289125        9.9771482472        6.3264163181
N             2.7182419716        9.9782464314        9.9739292495
N             6.3501650593        2.7181172729        2.7175087321
N             6.3482089569        2.7152637274        6.3400411330
N             6.3523682651        2.7205687664        9.9690065013
N             6.3456635405        6.3456635405        2.7202689739
N             6.3415839726        6.3415839726        6.3455186679
N             6.3480451798        6.3480451798        9.9726881205
N             6.3442834245        9.9724347070        2.7219237709
N             6.3360435302        9.9687196038        6.3496202030
N             6.3484178971        9.9738297525        9.9781344475
N            10.0130942631        2.6867551063        2.7211636348
N             9.9771482472        2.6992289125        6.3264163181
N             9.9782464314        2.7182419716        9.9739292495
N             9.9724347070        6.3442834245        2.7219237709
N             9.9687196038        6.3360435302        6.3496202030
N             9.9738297525        6.3484178971        9.9781344475
N             9.9555899983        9.9555899983        2.7993068680
N             9.9551286492        9.9551286492        6.3647965316
N             9.9760795416        9.9760795416        9.9799552442
K_POINTS gamma
CELL_PARAMETERS angstrom
     10.8780060000       0.0000000000       0.0000000000
      0.0000000000      10.8780060000       0.0000000000
      0.0000000000       0.0000000000      10.8780060000
